23
StericRender oriented
Ni       0.00000000      0.00000000      0.00000000
N       -1.27755607      0.00000396     -1.44313162
N        1.27755607     -0.00000396     -1.44312556
Cl      -1.52851812      0.00014943      1.55333672
Cl       1.52854504      0.00018951      1.55330643
C        2.62395263     -0.00018855     -1.32241209
C        3.46971664     -0.00008859     -2.42873582
C        2.91959046      0.00023894     -3.71427142
C        1.53265025      0.00040859     -3.84585829
C        0.73077317      0.00026519     -2.69804127
H        2.98437753     -0.00038493     -0.29111889
H        4.54893024     -0.00025510     -2.27207375
H        3.55894787      0.00034896     -4.59872691
H        1.07075405      0.00065073     -4.83332246
C       -2.62395467     -0.00015470     -1.32242804
C       -3.46970876     -0.00002179     -2.42875946
C       -2.91957387      0.00031477     -3.71429008
C       -1.53263292      0.00045850     -3.84586725
C       -0.73076492      0.00027915     -2.69804510
H       -2.98438781     -0.00035910     -0.29113808
H       -4.54892428     -0.00016936     -2.27210449
H       -3.55892454      0.00045375     -4.59875071
H       -1.07073007      0.00071067     -4.83332725
