45
StericRender oriented
Zr       0.00000000      0.00000000      0.00000000
C       -1.25136258      0.61862757     -2.09170494
C       -2.28077989     -0.01895715     -1.31536462
C       -2.56720242      0.82943390     -0.16734741
C       -1.71895769      1.98705304     -0.24137797
C       -0.94275078      1.84971575     -1.42626811
C        1.34636519     -0.48739381     -2.05701864
C        2.37023311     -0.00968338     -1.16765418
C        2.52084084     -0.98230853     -0.09510144
C        1.61210370     -2.06885988     -0.34101332
C        0.92094442     -1.75803555     -1.54374202
C       -0.66821349      0.14178162     -3.39754038
C        0.87309303      0.15539006     -3.33537965
C       -3.02665081     -1.21789989     -1.50673809
C       -3.59562712      0.46328474      0.74273155
C       -1.77202420      3.18394868      0.65772335
H       -0.21777269      2.58725136     -1.77288390
C        3.21245812      1.13795502     -1.19853208
C        3.50217639     -0.77785433      0.91234352
C        1.53908768     -3.35207781      0.42686696
H        0.17864206     -2.40786451     -2.00827339
Cl      -0.96673821     -1.57768622      1.57750737
Cl       0.96673821      1.57768622      1.57663289
C       -4.01856791     -1.53651408     -0.60235735
C       -4.30147534     -0.70035434      0.51853562
H       -4.60703702     -2.44547018     -0.74437873
H       -5.09672936     -0.99265338      1.20728988
H       -2.83782429     -1.85674375     -2.37254788
H       -3.81975965      1.09680686      1.60314339
C        4.15834643      1.29642056     -0.20675429
C        4.29995729      0.34572113      0.84753571
H        4.81781520      2.16676279     -0.22432559
H        5.06098734      0.51489799      1.61203296
H        3.12537544      1.86806814     -2.00645431
H        3.62179162     -1.50286684      1.71997287
H       -1.02886392      0.75873718     -4.23890476
H       -1.02067382     -0.88250709     -3.59778070
H        1.23605395      1.19494538     -3.37453869
H        1.30221880     -0.35226259     -4.21727175
H       -2.64197656      3.81350529      0.40279504
H       -1.85974014      2.89754242      1.71554272
H       -0.86521397      3.79483605      0.55766882
H        2.40583460     -3.99013308      0.18265978
H        1.53857888     -3.17974495      1.51251670
H        0.62434585     -3.90885535      0.18328037
