66
StericRender oriented
Ti       0.00000000      0.00000000      0.00000000
O       -1.34311989      0.21955354     -1.12383342
O        1.34311989     -0.21955354     -1.12142793
O       -1.04223273     -0.60626560     -4.66682700
O        1.05349454      0.33777455     -4.74088721
C       -1.81926727      0.10430885     -2.47733631
C       -0.62661623     -0.50512678     -3.30430313
C        0.67370951      0.34766764     -3.36281944
C        1.87615060     -0.12952234     -2.45537937
C        0.08264250     -0.38824262     -5.53665001
C        0.66376827     -1.72260818     -6.00366227
C       -0.36528434      0.49970397     -6.69152741
C       -2.21877745      1.49680030     -2.98583059
C       -1.79766170      2.66380358     -2.33008866
C       -2.16170377      3.92437977     -2.81921059
C       -2.94823111      4.03431637     -3.96903544
C       -3.37705693      2.87384485     -4.62405027
C       -3.01974485      1.61450451     -4.13501835
C       -3.03648312     -0.83673960     -2.41765561
C       -4.12157208     -0.44632636     -1.61186511
C       -5.23908577     -1.26973865     -1.47223060
C       -5.29539009     -2.49821387     -2.14257621
C       -4.22472115     -2.89145581     -2.94813794
C       -3.09836789     -2.06881526     -3.08342900
C        3.00222546      0.91928041     -2.40293071
C        3.09653348      1.99183406     -3.30116749
C        4.14460273      2.91568958     -3.19143948
C        5.10315408      2.78317321     -2.18462177
C        5.01494597      1.71296313     -1.28535726
C        3.97604686      0.78810280     -1.39657704
C        2.42422952     -1.50682079     -2.85259222
C        3.40589746     -1.61236031     -3.85213487
C        3.90272457     -2.86266926     -4.23081555
C        3.43015414     -4.02668944     -3.61412399
C        2.46101586     -3.92938738     -2.61108453
C        1.96201855     -2.67804253     -2.23031673
H       -0.41294755     -1.50507816     -2.88267128
H        0.45322002      1.38762046     -3.06185318
H        0.93813428     -2.35101151     -5.14649974
H       -0.07782167     -2.25520852     -6.61668802
H        1.56502762     -1.55236866     -6.60931279
H       -0.76627260      1.44386378     -6.30107195
H        0.48729033      0.71284219     -7.35148337
H       -1.14444688     -0.00759240     -7.27792248
H       -1.20285102      2.59312146     -1.41842897
H       -1.83103557      4.82108307     -2.29054223
H       -3.23528402      5.01785372     -4.34762217
H       -4.00205944      2.94794406     -5.51697712
H       -3.36715521      0.71387471     -4.64166063
H       -4.08292350      0.51049971     -1.08707979
H       -6.06985788     -0.95176843     -0.83841017
H       -6.17045049     -3.14313232     -2.03640127
H       -4.25900917     -3.84571193     -3.47867868
H       -2.28489403     -2.38712391     -3.73512233
H        2.37058247      2.10218267     -4.10733710
H        4.20436216      3.74497072     -3.89998564
H        5.91557565      3.50807532     -2.09848219
H        5.75774830      1.59906347     -0.49268937
H        3.91172786     -0.04363238     -0.69241505
H        3.78497424     -0.70778873     -4.32946860
H        4.66916059     -2.92580216     -5.00660025
H        3.82431269     -5.00276141     -3.90547850
H        2.09664671     -4.82865175     -2.10954800
H        1.23294927     -2.61533940     -1.42127066
Cl       0.27029943      1.83998336      1.23048939
Cl      -0.28130832     -1.85412156      1.20753008
