74
StericRender oriented
Ni       0.00000000      0.00000000      0.00000000
C       -0.00135286     -1.70336626      0.56038000
C       -1.46767711      0.79572541      0.68738151
C        1.46816391      0.79415598      0.68799102
O       -0.00221239     -2.77905187      0.99719182
O       -2.37022503      1.26362663      1.24455302
O        2.37071700      1.26137237      1.24579871
C        3.03938796      1.39060185     -2.44761270
C        2.47207988      0.09273257     -2.40528394
C        3.25106086     -1.04511528     -2.08309488
C        4.60560257     -0.84953073     -1.77345669
C        5.17698318      0.42249108     -1.79162745
C        4.39797792      1.52886012     -2.12644857
N        1.09358553     -0.07223625     -2.79086032
C        0.00000000      0.00000000     -1.98443224
N       -1.09363847     -0.07264288     -2.79082184
C       -0.76810880     -0.19858565     -4.23660326
C        0.76808720     -0.20000119     -4.23647538
C       -2.47204712      0.09323793     -2.40530758
C       -3.25168614     -1.04423804     -2.08334174
C       -4.60611543     -0.84796151     -1.77368717
C       -5.17676982      0.42439332     -1.79161260
C       -4.39713707      1.53038335     -2.12619829
C       -3.03861203      1.39144012     -2.44736014
H       -5.22441074     -1.70893000     -1.51081922
H       -4.85057634      2.52432750     -2.13844190
H        1.19900103      0.64298149     -4.79804328
H        5.22340027     -1.71081321     -1.51044511
H        4.85197665      2.52254835     -2.13889480
H        1.19432248     -1.13140824     -4.63874509
H       -1.19605856     -1.12841214     -4.64063377
H       -1.19729294      0.64626849     -4.79673266
H        6.23211364      0.55176700     -1.53983057
H       -6.23183137      0.55421794     -1.53980669
C       -2.67568239     -2.45655512     -2.09453703
H       -1.57877558     -2.36290422     -2.10334883
C       -2.23745768      2.62780854     -2.84659724
H       -1.19201783      2.31494133     -2.99206523
C        2.23887831      2.62730485     -2.84708812
H        1.19330815      2.31489606     -2.99261166
C        2.67432263     -2.45713310     -2.09398817
H        1.57746742     -2.36293549     -2.10355583
C        3.10405903     -3.21943536     -3.36736553
H        4.19668258     -3.35813738     -3.38846280
H        2.63643640     -4.21621254     -3.39669329
H        2.82270212     -2.68277973     -4.28633593
C        3.06077080     -3.26367807     -0.83978804
H        2.81619377     -2.71836111      0.08170250
H        2.51854018     -4.22127181     -0.82222841
H        4.13740515     -3.49584900     -0.82367430
C        2.75133342      3.21425116     -4.18003909
H        2.12173757      4.06067674     -4.49655118
H        3.78340862      3.58497147     -4.07857474
H        2.74911295      2.46467386     -4.98652365
C        2.23862115      3.70651489     -1.74672957
H        1.62531640      4.56655037     -2.05812188
H        1.83047558      3.31790789     -0.80415521
H        3.25541346      4.07926560     -1.54770657
C       -2.74957356      3.21522228     -4.17946277
H       -3.78143436      3.58652121     -4.07792381
H       -2.11950542      4.06133776     -4.49587204
H       -2.74782304      2.46578525     -4.98608251
C       -2.23669484      3.70693686     -1.74613658
H       -1.82845142      3.31817103     -0.80367671
H       -1.62317959      4.56678648     -2.05762139
H       -3.25332952      4.08000570     -1.54691739
C       -3.06342523     -3.26360190     -0.84108053
H       -4.14016990     -3.49533418     -0.82589467
H       -2.52162285     -4.22144059     -0.82364234
H       -2.81929625     -2.71892330      0.08090534
C       -3.10491099     -3.21794090     -3.36864955
H       -2.63784963     -4.21497548     -3.39816253
H       -4.19760247     -3.35598195     -3.39064249
H       -2.82253790     -2.68095594     -4.28711489
