37
StericRender oriented
Ti       0.00000000      0.00000000      0.00000000
C       -1.55341000      0.47743000     -5.40116000
C       -0.95803000      1.28576000     -4.39083000
C       -1.18974000      2.70672000     -4.44276000
C       -1.95333000      3.25250000     -5.51075000
C       -2.49809000      2.43904000     -6.48439000
C       -2.30363000      1.03861000     -6.41744000
C       -0.67141000      3.53430000     -3.40914000
C        0.00000000      2.98673000     -2.34204000
C        0.21416000      1.58594000     -2.28387000
O        0.84054000      1.10273000     -1.15482000
C       -0.17986000      0.72323000     -3.31374000
Cl      -1.46496000      1.10028000      1.23752000
H       -0.83723000      4.61327000     -3.45905000
H        0.36986000      3.59934000     -1.51858000
H       -1.42159000     -0.60392000     -5.36004000
H       -2.75627000      0.39293000     -7.17315000
H       -3.08848000      2.86952000     -7.29584000
H       -2.11278000      4.33366000     -5.53746000
C        1.55341000     -0.47743000     -5.40116000
C        0.95803000     -1.28576000     -4.39083000
C        1.18974000     -2.70672000     -4.44276000
C        1.95333000     -3.25250000     -5.51075000
C        2.49809000     -2.43904000     -6.48439000
C        2.30363000     -1.03861000     -6.41744000
C        0.67141000     -3.53430000     -3.40914000
C        0.00000000     -2.98673000     -2.34204000
C       -0.21416000     -1.58594000     -2.28387000
O       -0.84054000     -1.10273000     -1.15482000
C        0.17986000     -0.72323000     -3.31374000
H        0.83723000     -4.61327000     -3.45905000
H       -0.36986000     -3.59934000     -1.51858000
H        1.42159000      0.60392000     -5.36004000
H        2.75627000     -0.39293000     -7.17315000
H        3.08848000     -2.86952000     -7.29584000
H        2.11278000     -4.33366000     -5.53746000
Cl       1.46496000     -1.10028000      1.23752000
