77
StericRender oriented
Pd       0.00000000      0.00000000      0.00000000
Cl       1.59666111      0.31929635      1.71091706
Cl      -1.59665389      0.31916815      1.71094846
P       -1.95876400      0.00000140     -1.35473378
C       -2.18333334     -0.79027208     -3.03700008
C       -3.36181628     -1.45976591     -3.41385310
C       -3.47013103     -2.04769479     -4.67685971
C       -2.40741165     -1.98709054     -5.58505726
C       -1.22445234     -1.31561647     -5.25369603
C       -1.15577967     -0.72463901     -3.98227664
O       -0.00001679     -0.06147825     -3.59773126
C       -0.00002093     -1.16768162     -6.16686576
C       -0.00004692      0.26194723     -6.78401816
C       -0.00001468     -2.19935985     -7.30545837
C       -2.43321524      1.77046672     -1.69508866
C       -3.03164038      2.14837368     -2.90951229
C       -3.38353752      3.48341273     -3.13761372
C       -3.14293248      4.45127402     -2.15754545
C       -2.54889131      4.07858460     -0.94671850
C       -2.18818020      2.74814821     -0.71405186
C       -3.42773792     -0.75387767     -0.50258083
C       -4.65121778     -0.07976607     -0.39682563
C       -5.63666644     -2.02358429      0.67046976
C       -5.75097757     -0.71456158      0.19394324
C       -4.41421056     -2.69907303      0.56173177
C       -3.31282385     -2.06764009     -0.01861666
H       -4.19026900     -1.53265759     -2.70990296
H       -2.50619674     -2.46861142     -6.55923128
H       -4.38924081     -2.56990702     -4.94998888
H       -0.00005423      1.03743355     -6.00591261
H       -0.89391182      0.40188651     -7.41102800
H        0.00000422     -3.23124923     -6.92408399
H       -0.88172746     -2.06584219     -7.94882310
H       -4.74579181      0.94412457     -0.76254491
H       -6.49456521     -2.51527692      1.13434078
H       -6.69842330     -0.17825029      0.28369553
H       -4.31406166     -3.71733503      0.94388227
H       -2.35390639     -2.58805728     -0.07566537
H       -3.22750411      1.40188635     -3.68089336
H       -3.84674882      3.76418258     -4.08633870
H       -3.41737802      5.49331092     -2.33700053
H       -2.35788558      4.82763879     -0.17508450
H       -1.73387491      2.45799435      0.23576457
P        1.95876400     -0.00000140     -1.35473523
C        2.18332566     -0.79022338     -3.03702766
C        3.36180972     -1.45970620     -3.41389295
C        3.47012398     -2.04762434     -4.67690448
C        2.40739635     -1.98703129     -5.58509297
C        1.22442866     -1.31558041     -5.25371457
C        1.15575933     -0.72460345     -3.98229412
C        2.43326976      1.77047000     -1.69497077
C        3.03170662      2.14845605     -2.90936346
C        3.38364247      3.48350346     -3.13735527
C        3.14306652      4.45129207     -2.15720777
C        2.54901668      4.07852184     -0.94641024
C        2.18826780      2.74807636     -0.71385216
C        3.42772008     -0.75396560     -0.50262652
C        4.65121422     -0.07988841     -0.39683193
C        5.63662556     -2.02379746      0.67033151
C        5.75096143     -0.71474487      0.19389327
C        4.41415544     -2.69925439      0.56154757
C        3.31278015     -2.06776101     -0.01875504
H        4.19026700     -1.53259697     -2.70994705
H        2.50617726     -2.46854972     -6.55926802
H        4.38923719     -2.56982589     -4.95004286
H        0.89380618      0.40191420     -7.41103962
H        0.88168554     -2.06581594     -7.94883663
H        4.74580919      0.94402483     -0.76248516
H        6.49451379     -2.51553858      1.13416841
H        6.69841870     -0.17845975      0.28368055
H        4.31398634     -3.71754066      0.94362924
H        2.35385262     -2.58815399     -0.07583847
H        3.22754889      1.40202618     -3.68080647
H        3.84686118      3.76433863     -4.08605749
H        3.41754297      5.49333587     -2.33657779
H        2.35803642      4.82751882     -0.17471326
H        1.73395708      2.45785718      0.23594165
