39
StericRender oriented
Zr       0.00000000      0.00000000      0.00000000
C       -1.22711658      0.70635087     -2.10560668
C       -2.32080333      0.27291216     -1.27699819
C       -2.42045798      1.18716230     -0.14762780
C       -1.38248801      2.16062820     -0.28796028
C       -0.68650991      1.88321826     -1.49398130
C        1.22855150     -0.70433997     -2.10590467
C        2.32175363     -0.27153589     -1.27632933
C        2.42074807     -1.18671063     -0.14763797
C        1.38281522     -2.16004946     -0.28931046
C        0.68753234     -1.88161834     -1.49551015
C       -0.76611542      0.08564830     -3.39904332
C        0.76816656     -0.08204174     -3.39877849
C       -3.26329365     -0.78668455     -1.40884726
C       -3.45445833      1.01696943      0.81222338
H       -1.17350180      2.98007876      0.39363305
H        0.14610695      2.46964580     -1.88135273
C        3.26463015      0.78784222     -1.40701834
C        3.45406862     -1.01720973      0.81306366
H        1.17349656     -2.98012371      0.39143203
H       -0.14463965     -2.46789647     -1.88407369
Cl      -1.16469100     -1.45542123      1.56018836
Cl       1.16469100      1.45542123      1.56033606
C       -4.25688930     -0.91392375     -0.46038872
C       -4.35116856     -0.01731733      0.64626571
H       -4.99383726     -1.71434718     -0.55445936
H       -5.15529785     -0.15795158      1.37137587
H       -3.21583346     -1.46941057     -2.26056241
H       -3.53177421      1.69822747      1.66188034
C        4.25766242      0.91429886     -0.45787111
C        4.35104123      0.01704429      0.64833731
H        4.99489535      1.71456230     -0.55106352
H        5.15467286      0.15716287      1.37409902
H        3.21787128      1.47111116     -2.25833905
H        3.53073980     -1.69903664      1.66232355
H       -1.08869322      0.69054210     -4.26424015
H       -1.24487645     -0.89939210     -3.51936211
H        1.24701227      0.90314030     -3.51731965
H        1.09118986     -0.68577673     -4.26460326
