57
StericRender oriented
Pd       0.00000000      0.00000000      0.00000000
N        1.45980737     -0.42409440     -1.40500919
C        1.35367709     -0.99002408     -2.57125991
C        0.15197516     -1.26253690     -3.37895065
C        2.91651801     -0.22277680     -1.10823488
O        2.52425236     -1.38075803     -3.14083786
H        3.07034690     -0.54023404     -0.06622067
C        3.38987288      1.26362292     -1.24576548
C        3.55337867     -1.19860132     -2.10786565
H        3.75360501     -2.18775000     -1.66861027
H        4.45200485     -0.82483194     -2.61184866
Cl       1.44536509     -0.67378682      1.76240610
Cl      -1.59431583      0.67832730      1.54553167
C        4.88384835      1.29609971     -0.85256462
C        3.21580339      1.79388035     -2.68191205
C        2.61712392      2.16994596     -0.26835828
H        5.25358923      2.33264531     -0.88213234
H        5.03247412      0.91592369      0.17011695
H        5.51746951      0.70672291     -1.53455161
H        3.57452819      2.83314763     -2.74120533
H        3.78381819      1.20858613     -3.42240481
H        2.15699646      1.79773672     -2.98327682
H        3.02331502      3.19324466     -0.31573670
H        1.54648305      2.22088516     -0.51953002
H        2.69491506      1.80603692      0.76657715
C        0.31163197     -2.12108739     -4.48772205
C       -0.75546754     -2.41242464     -5.33582012
C       -2.00746760     -1.84418624     -5.09287975
C       -2.18109302     -0.99231726     -3.99777177
C       -1.12107077     -0.68591657     -3.12994543
H        1.29125071     -2.56123724     -4.67126694
H       -0.60695972     -3.08685112     -6.18136749
H       -2.85436980     -2.06670737     -5.74532341
H       -3.16738755     -0.56855155     -3.80183695
P       -1.45980737      0.42409440     -1.67179578
C       -1.35654957      2.15243784     -2.32028411
C       -3.25556981      0.13027749     -1.34740616
C       -1.45136934      3.19263340     -1.37600460
C       -1.37385183      4.52193322     -1.79789575
C       -1.18469476      4.82370744     -3.15287001
C       -1.07829026      3.79095161     -4.08949317
C       -1.16619590      2.45545640     -3.67757137
H       -1.58170142      2.95210950     -0.31662031
H       -1.45106353      5.32543972     -1.06227881
H       -1.11644707      5.86453130     -3.47688444
H       -0.92617302      4.02118231     -5.14637441
H       -1.08623622      1.65456733     -4.41527464
C       -4.24530606      0.99202587     -1.84370048
C       -5.59726229      0.70633195     -1.61679968
C       -5.96173323     -0.43618809     -0.89844278
C       -4.97301325     -1.29313809     -0.39818127
C       -3.62288087     -1.00981523     -0.61282004
H       -3.96467470      1.88943267     -2.39862329
H       -6.36390762      1.38483674     -1.99747307
H       -7.01650242     -0.65551108     -0.71849373
H       -5.25324543     -2.17564286      0.18062240
H       -2.85117295     -1.65596717     -0.19015485
