42
StericRender oriented
Zr       0.00000000      0.00000000      0.00000000
C        0.01941621      0.00000000     -3.16317574
C        1.19394840      0.00000000     -2.17307995
C       -1.17045249      0.00000000     -2.16443298
C        1.66655867     -1.14669500     -1.45513011
C        2.44546260     -0.70549100     -0.34163024
C        2.44546260      0.70549100     -0.34163024
C        1.66655867      1.14669500     -1.45513011
H        1.45667583     -2.18721800     -1.69031920
H        2.92580316     -1.34990000      0.38946602
H        2.92580316      1.34990000      0.38946602
H        1.45667583      2.18721800     -1.69031920
C       -1.76683941      1.16831500     -1.52026757
C       -2.63387153      0.72070500     -0.44376648
C       -2.63387153     -0.72070500     -0.44376648
C       -1.76683941     -1.16831500     -1.52026757
C       -1.65651725      2.57677800     -1.72557982
C       -3.34577752      1.63689500      0.35899341
C       -3.34577752     -1.63689500      0.35899341
C       -1.65651725     -2.57677800     -1.72557982
H       -1.05067568      2.98361500     -2.53089409
H       -3.99477920      1.27281500      1.15811831
H       -3.99477920     -1.27281500      1.15811831
H       -1.05067568     -2.98361500     -2.53089409
C       -2.37124563      3.45064100     -0.92340392
C       -3.20922293      2.99310400      0.12208998
C       -3.20922293     -2.99310400      0.12208998
C       -2.37124563     -3.45064100     -0.92340392
H       -2.28489029      4.52432000     -1.10445438
H       -3.75160873      3.71488900      0.73521541
H       -2.28489029     -4.52432000     -1.10445438
H       -3.75160873     -3.71488900      0.73521541
C        0.05484273     -1.23237100     -4.09104441
H       -0.90025008     -1.34100400     -4.62606783
H        0.85415948     -1.10085900     -4.83548881
H        0.26336712     -2.16898800     -3.56441337
C        0.05484273      1.23237100     -4.09104441
H        0.85415948      1.10085900     -4.83548881
H       -0.90025008      1.34100400     -4.62606783
H        0.26336712      2.16898800     -3.56441337
Cl       0.00000000      1.86376600      1.55623901
Cl       0.00000000     -1.86376600      1.55623901
