54
StericRender oriented
Pd       0.00000000      0.00000000      0.00000000
N        1.39787450     -0.36446450     -1.49315751
C        1.16102223     -0.50339032     -2.75856788
C       -0.00013361     -0.00060348     -3.58950496
C        2.83440773     -0.74617144     -1.26085364
O        2.12686950     -1.11974290     -3.48482228
H        2.87342168     -1.30546197     -0.31654379
C        3.80336584      0.48703266     -1.14989978
C        3.08860350     -1.62894100     -2.48649747
H        2.84202068     -2.68783783     -2.31381435
H        4.08840506     -1.54247498     -2.92504657
Cl       1.41503568     -0.77494779      1.67256116
C        0.53047049      1.15319448     -4.49193516
H       -0.27120319      1.48876753     -5.16180788
H        1.37577888      0.79586811     -5.09373669
H        0.86159810      2.00832418     -3.88621764
N       -1.39787450      0.36446450     -1.49318250
C       -1.16090477      0.50318469     -2.75860112
C       -2.83416727      0.74709056     -1.26090445
O       -2.12636750      1.12007210     -3.48488577
H       -2.87279832      1.30645203     -0.31661630
C       -3.80402116     -0.48542734     -1.14990436
C       -3.08780450      1.62995300     -2.48660863
H       -2.84054232      2.68870617     -2.31402874
H       -4.08765894      1.54408102     -2.92515958
Cl      -1.41499232      0.77487122      1.67260486
C       -0.53117851     -1.15562938     -4.49015067
H        0.27018182     -1.49203433     -5.15999388
H       -1.37678712     -0.79909775     -5.09201208
H       -0.86196490     -2.00997158     -3.88314225
C        5.17275129     -0.07516806     -0.70770603
C        3.96441850      1.23382074     -2.48976721
C        3.31826291      1.49389561     -0.09013489
H        5.89744040      0.74660264     -0.60171418
H        5.09305127     -0.58345421      0.26557775
H        5.59255356     -0.78855280     -1.43580693
H        4.65896164      2.07709296     -2.35313409
H        4.37319869      0.60200480     -3.29349979
H        3.00886215      1.65731250     -2.83403100
H        4.04653699      2.31735398     -0.01258118
H        2.34256364      1.92587356     -0.35889935
H        3.20565490      1.02474851      0.89592271
C       -5.17273071      0.07765702     -0.70676618
C       -3.96640850     -1.23160828     -2.48994498
C       -3.31912709     -1.49305545     -0.09078018
H       -5.89798660     -0.74359128     -0.60061907
H       -5.09209373      0.58557588      0.26663308
H       -5.59240144      0.79159332     -1.43440433
H       -4.66167436     -2.07427807     -2.35328215
H       -4.37497131     -0.59913518     -3.29326746
H       -3.01141385     -1.65587657     -2.83478614
H       -4.04806701     -2.31590707     -0.01299094
H       -2.34398036     -1.92579157     -0.36032565
H       -3.20544910     -1.02430255      0.89533626
