81
StericRender oriented
Pd       0.00000000      0.00000000      0.00000000
P        1.70242850      0.15686753     -1.54220655
C        3.13583880      1.13265443     -0.86915571
C        4.45681790      0.85330845     -1.24757085
C        5.50954842      1.63332805     -0.75350223
C        5.25005463      2.69638677      0.11575699
C        3.93278700      2.97334962      0.50125551
C        2.88062141      2.19056978      0.02140358
P       -1.70242850     -0.15686753     -1.54216056
C       -1.19332363     -1.15805155     -3.04836757
C       -0.26183769     -0.70304768     -3.99133814
C        0.18189936     -1.58943552     -5.03893417
C       -0.33198910     -2.93078346     -5.10660592
C       -1.28030143     -3.34513086     -4.13917399
C       -1.69469095     -2.48843395     -3.14429905
C        0.11003787     -3.80288964     -6.14039161
C        1.02646596     -3.37974615     -7.08100177
C        1.54002604     -2.06108072     -7.01900801
C        1.13054335     -1.19173848     -6.02666473
C        0.26196729      0.70214630     -3.99162392
C        1.19337235      1.15755147     -3.04875852
C        1.69470100      2.48790305     -3.14518405
C        1.28035450      3.34419909     -4.14042708
C        0.33210283      2.92945246     -5.10774111
C       -0.18175068      1.58811042     -5.03957186
C       -0.10993223      3.80114823     -6.14187239
C       -1.02633413      3.37762269     -7.08233420
C       -1.53988002      2.05897215     -7.01983497
C       -1.13038968      1.19002043     -6.02715827
C       -2.45442119      1.42386921     -2.12988878
C       -3.16924857      1.51115252     -3.33595484
C       -3.78732741      2.71204981     -3.69828349
C       -3.69821014      3.82763676     -2.85845510
C       -2.99198382      3.74055220     -1.65335553
C       -2.36723071      2.54450298     -1.28697560
C       -3.13619221     -1.13214374     -0.86911047
C       -4.45701714     -0.85257885     -1.24791842
C       -5.51005763     -1.63222737     -0.75392809
C       -5.25102340     -2.69511762      0.11567375
C       -3.93391900     -2.97228864      0.50157832
C       -2.88144557     -2.18988637      0.02179129
C        2.45483084     -1.42380372     -2.12959343
C        3.16980447     -1.51108937     -3.33556946
C        3.78818364     -2.71190109     -3.69767088
C        3.69919193     -3.82739918     -2.85771224
C        2.99278423     -3.74032179     -1.65271971
C        2.36773133     -2.54436000     -1.28656357
H       -3.24190399      0.64415516     -3.99568999
H       -4.33455348      2.77551264     -4.64123828
H       -4.18148087      4.76501959     -3.14303700
H       -2.92463131      4.60732092     -0.99225897
H       -1.83319018      2.46221501     -0.33697596
H       -4.67443393     -0.01579961     -1.91316024
H       -6.53622685     -1.39788352     -1.04588448
H       -6.07412786     -3.29925510      0.50377757
H       -3.72469808     -3.78599233      1.19917658
H       -1.86155334     -2.38382310      0.35958042
H        1.53554633     -0.18014852     -5.99667468
H        2.26645803     -1.72802746     -7.76366985
H        1.35713291     -4.05648415     -7.87188574
H       -0.29348335     -4.81827356     -6.17397475
H       -1.68437774     -4.35965820     -4.18951432
H       -2.42650503     -2.83562457     -2.41614211
H       -1.53538369      0.17843842     -5.99676532
H       -2.26629602      1.72562339     -7.76438010
H       -1.35700520      4.05405466     -7.87347921
H        0.29354953      4.81653530     -6.17583325
H        1.68439516      4.35872274     -4.19112475
H        2.42643692      2.83541146     -2.41709700
H        3.24231405     -0.64415569     -3.99540233
H        4.33553159     -2.77538622     -4.64055316
H        4.18270421     -4.76471135     -3.14211740
H        2.92552875     -4.60703111     -0.99153824
H        1.83353785     -2.46208101     -0.33665312
H        4.67460114      0.01640372     -1.91253507
H        6.53584823      1.39913600     -1.04512590
H        6.07292618      3.30081337      0.50390213
H        3.72317789      3.78718491      1.19858229
H        1.86060463      2.38435695      0.35890652
Cl      -1.63799556      0.40342937      1.66285227
Cl       1.63813244     -0.40313061      1.66280577
