73
StericRender oriented
C        2.76222585      1.72700390     -2.12888509
C        2.45344216      0.39687699     -2.50880998
C        3.46317305     -0.59067087     -2.63844803
C        4.77999751     -0.22850538     -2.31941665
C        5.09809614      1.06290298     -1.90247753
C        4.09700129      2.02738579     -1.81566452
N        1.10062683      0.05990654     -2.89583856
C       -0.00000000      0.00000000     -2.10643163
N       -1.09159912     -0.14830904     -2.89865146
C       -0.71349672     -0.38299780     -4.31657105
C        0.73959119      0.09111504     -4.33827806
C       -2.47486077     -0.27113493     -2.49635468
C       -2.95570135     -1.49170876     -1.96141612
C       -4.31742176     -1.56523730     -1.62722080
C       -5.17845397     -0.48954464     -1.83497092
C       -4.69238414      0.68936706     -2.39804068
C       -3.34128754      0.82400350     -2.74947529
H       -4.70843830     -2.49134319     -1.20095831
H       -5.37489469      1.52414975     -2.57166273
H        0.84427801      1.12257438     -4.71680141
H        5.57047912     -0.97773028     -2.39648940
H        4.35548092      3.04299950     -1.50862842
H        1.39926191     -0.56415077     -4.91884668
H       -0.81204255     -1.45783548     -4.54370381
H       -1.36511349      0.18075152     -4.99500927
H        6.12977531      1.31946742     -1.65097341
H       -6.23327656     -0.57194432     -1.56273786
C       -2.08243003     -2.73007986     -1.79138169
H       -1.02935930     -2.42980442     -1.88832122
C       -2.87937930      2.11233962     -3.42864730
H       -1.77861808      2.09304756     -3.46856998
C        1.73662401      2.85700429     -2.10834586
H        0.73718093      2.41455156     -2.23101184
C        3.18778213     -2.00333229     -3.14739198
H        2.09757651     -2.15563221     -3.12643678
C        3.69287994     -2.17022845     -4.59944744
H        4.79059072     -2.08791593     -4.63813267
H        3.41660021     -3.16118918     -4.99298711
H        3.28917905     -1.40591697     -5.28157966
C        3.81352887     -3.09310575     -2.25592904
H        3.49716471     -2.97766730     -1.21146330
H        3.49623750     -4.08834980     -2.60425874
H        4.91399217     -3.06787050     -2.29716388
C        1.97192291      3.82754892     -3.28712495
H        1.19933725      4.61234444     -3.30083833
H        2.95226358      4.32123387     -3.19845123
H        1.95177459      3.30767275     -4.25750767
C        1.73451300      3.62188313     -0.77127599
H        0.91643443      4.35800605     -0.75380705
H        1.59655939      2.93257685      0.07369045
H        2.67688866      4.17075227     -0.61818306
C       -3.41460198      2.18828306     -4.87691310
H       -4.51302908      2.26775885     -4.87934053
H       -3.01221477      3.07407257     -5.39312345
H       -3.15352470      1.29737076     -5.46843941
C       -3.28838422      3.38163272     -2.65568211
H       -2.93531257      3.35630683     -1.61698221
H       -2.86452901      4.27280576     -3.14443111
H       -4.38217203      3.50749250     -2.64097292
C       -2.22934906     -3.36658620     -0.39741873
H       -3.23639413     -3.78528358     -0.24142545
H       -1.50262092     -4.18389437     -0.28122383
H       -2.02746530     -2.62905427      0.39184646
C       -2.38989835     -3.76411605     -2.89755144
H       -1.71565315     -4.62996983     -2.80740507
H       -3.42554212     -4.13175963     -2.81929455
H       -2.26659145     -3.33840067     -3.90592113
Ir       0.00000000      0.00000000      0.00000000
C        0.13381689     -0.14415772      1.90134054
C       -0.99741212      1.55121292      0.12268376
O        0.24141365     -0.24306218      3.04732527
Cl       1.18763740     -2.08136379     -0.11772691
O       -1.63662893      2.51885395      0.25350248
