59
StericRender oriented
C       -1.18590801     -4.18284439     -4.38170233
C        0.14956568     -3.53920163     -4.78098192
C        0.16512379     -2.02783946     -4.47692819
C       -0.14037887     -1.76719605     -2.98864007
C       -1.48496525     -2.40855935     -2.58153682
C       -1.50935123     -3.91361590     -2.90488146
P       -0.00000000      0.00000000     -2.30198075
C       -1.29937135      1.14306070     -3.10080915
C       -2.56310900      1.29651874     -2.22802960
C       -3.49671746      2.38929985     -2.77838672
C       -3.87687753      2.13649077     -4.24491347
C       -2.62421373      1.95778695     -5.11418643
C       -1.70527599      0.85201649     -4.56143700
C        1.65780089      0.71053064     -2.92063285
C        1.74150692      1.26477170     -4.35865310
C        3.11013502      1.92674490     -4.61276521
C        4.26995889      0.95931235     -4.33565924
C        4.18687492      0.39753766     -2.90888548
C        2.82273335     -0.26246316     -2.63967338
H        1.78035987      1.57005546     -2.23433166
H        1.59665066      0.45236673     -5.09033229
H        0.94309481      2.00119905     -4.53833928
H        2.72498479     -1.15250077     -3.28608802
H        2.77641331     -0.61801962     -1.59911542
H        3.15448071      2.29718022     -5.65032759
H        3.21056986      2.81180184     -3.95834209
H        4.99295154     -0.33351988     -2.73298398
H        4.34220754      1.21647755     -2.18361962
H        5.23669219      1.46442176     -4.49458763
H        4.22895459      0.12479257     -5.05993723
H       -0.77318026      2.11809805     -3.08160930
H       -3.10492210      0.33460695     -2.19496573
H       -2.27637853      1.52902534     -1.19211788
H       -2.24774162     -0.10862121     -4.59967172
H       -0.82402265      0.74336760     -5.20896614
H       -4.40088002      2.45286268     -2.15102730
H       -2.99139048      3.36923816     -2.69650297
H       -2.90532207      1.72033626     -6.15371457
H       -2.06359101      2.91000240     -5.15043357
H       -4.49757103      2.96231826     -4.62954754
H       -4.49538100      1.22252156     -4.30923644
H        0.64633545     -2.27471955     -2.39745868
H       -0.58397506     -1.52812323     -5.11021552
H        1.14432665     -1.60860967     -4.75230030
H       -2.30952893     -1.91028266     -3.12218445
H       -1.66551304     -2.24823540     -1.50733538
H        0.35262299     -3.70390260     -5.85211918
H        0.97076367     -4.02933695     -4.22650540
H       -2.49365578     -4.33396804     -2.64103798
H       -0.76748484     -4.42941596     -2.26850215
H       -1.16189018     -5.26754217     -4.57665457
H       -1.99253785     -3.76842808     -5.01414439
Ni       0.00000000      0.00000000      0.00000000
C        1.18360159     -1.24412849      0.53003229
C       -1.62435619     -0.41364094      0.65375068
C        0.49449318      1.66299805      0.46915103
O        0.81356058      2.73040559      0.79019514
O       -2.64194019     -0.68128541      1.14003940
O        1.92127117     -2.04630965      0.92640062
