71
StericRender oriented
Mn       0.00000000      0.00000000      0.00000000
Cl      -0.52710692     -1.40669258     -1.92767672
O       -1.72532130     -0.44164401      0.70095024
O        0.27864461      1.10246487      1.17408870
O        0.88276411     -1.48985160      0.72770598
N        1.64134804      0.49383498     -1.02588178
N       -0.79879085      1.43766063     -1.10620004
C       -2.69571644      0.39697997      0.96342630
C       -2.79852120      1.66221553      0.27533102
C       -3.73530943      0.02603532      1.89626324
C       -4.75119558      0.95073042      2.12904182
C       -3.71558402     -1.34221134      2.60159437
C       -4.83606318      2.19933729      1.47780613
C       -4.91821437     -1.51855642      3.55210664
C       -3.78614285     -2.47062106      1.54107468
C       -2.42761936     -1.48125515      3.44992507
C        1.94835761     -2.14678105      0.33039723
C        2.67401481     -0.27080928     -1.18699226
C        1.50457667      1.80947177     -1.67680232
C        2.87250850     -1.57070754     -0.60928250
C        4.03516861     -2.27718783     -0.98829443
C        2.22606808     -3.44851783      0.88414740
C       -1.90157044      2.03572233     -0.77959909
C       -3.87808366      2.53810544      0.54483901
C        0.05844083      1.84894742     -2.22810177
C        2.52671794      2.14877023     -2.76724052
C       -0.26643876      3.20054895     -2.87036654
C        4.29342610     -3.53074896     -0.46427987
C        3.39070632     -4.09038851      0.45891341
C        1.28146062     -4.09807263      1.91133000
C        2.19580674      3.50710606     -3.41003842
C        0.76476719      3.53278585     -3.96317993
C        1.78145726     -5.48906135      2.35351631
C        1.20307547     -3.20835384      3.17839392
C       -0.12545821     -4.28197950      1.28978426
H        3.48808243      0.08139675     -1.83435518
H       -2.20713987      2.90880124     -1.37100376
H        1.56762164      2.55787988     -0.86476000
H       -0.02554257      1.03994702     -2.97695310
H        4.72131237     -1.82000625     -1.70656716
H       -3.93710318      3.48570563      0.00210045
H        2.51287060      1.36106468     -3.54126948
H        3.54352177      2.17628837     -2.34353434
H       -0.25604249      3.99198540     -2.09916230
H       -1.27749350      3.18076417     -3.30743021
H        0.53837787      4.52011032     -4.39549045
H        0.67443823      2.80050672     -4.78459756
H        2.92072626      3.71954364     -4.21152175
H        2.31489851      4.30792849     -2.65876327
H        5.18537689     -4.08564001     -0.75974404
H        3.61907277     -5.07820074      0.85918160
H       -5.66149634      2.87646065      1.70349464
H       -5.53304932      0.69931546      2.84625477
H        2.76625174     -5.44208822      2.84485517
H        1.84137321     -6.19636118      1.51143048
H        1.07015069     -5.90578251      3.08256013
H        2.19605019     -3.10840170      3.64501106
H        0.82666297     -2.20520057      2.94528632
H        0.52662944     -3.67070285      3.91463932
H       -0.80025295     -4.73667813      2.03266127
H       -0.07917473     -4.95099709      0.41666738
H       -0.55739398     -3.32868683      0.96461958
H       -4.92202438     -0.77191033      4.36219137
H       -5.88115191     -1.46425939      3.02000247
H       -4.85714089     -2.51209949      4.02157356
H       -2.94881861     -2.41653102      0.83488461
H       -3.75829949     -3.45211848      2.04100245
H       -4.72568822     -2.40712532      0.96976798
H       -1.52738172     -1.41299754      2.82876799
H       -2.42384437     -2.45696630      3.96176222
H       -2.38091928     -0.69343018      4.21819663
