51
StericRender oriented
Pd       0.00000000      0.00000000      0.00000000
P        1.57127000      0.01580500     -1.61455998
C        0.70514979      0.01778947     -3.26318464
C        2.86265949      1.39885372     -1.69716939
C        4.17848190      0.69040976     -1.30722657
C        2.83684026     -1.38968436     -1.57316605
P       -1.57127000     -0.01580500     -1.61455002
C       -0.70515021     -0.01786053     -3.26318536
C       -2.86268051     -1.39883628     -1.69712061
C       -2.83680974      1.38970564     -1.57318395
C        1.39693221      0.03905053     -4.48666926
C        0.69947471      0.02026178     -5.69744465
C       -0.69948529     -0.02045822     -5.69743535
C       -1.39693779     -0.03917947     -4.48666074
C       -4.17749196      0.71462011     -1.93052519
C       -4.17849810     -0.69036024     -1.30720343
C        4.17750804     -0.71457989     -1.93052481
H       -2.48886786     -0.06966965     -4.49844351
H       -1.24798114     -0.03512284     -6.64166173
H        1.24796886      0.03487716     -6.64166827
H        2.48886214      0.06952035     -4.49845649
Cl       1.77768984     -0.04853541      1.58790974
Cl      -1.77768017      0.04857459      1.58791026
H       -2.84401306      1.62411234     -0.49459753
C       -2.48921468      2.64500329     -2.37084554
H       -5.01937968      1.32358581     -1.56224941
H       -4.28807876      0.64811311     -3.02838348
H       -5.04492013     -1.28718532     -1.63545882
H       -4.22278130     -0.60709324     -0.20913445
H       -2.90490714     -1.67131285     -2.76711613
C       -2.53061534     -2.63713336     -0.86285349
H        5.04489987      1.28724468     -1.63548118
H        4.22275870      0.60717676     -0.20915556
H        5.01940032     -1.32351419     -1.56223060
H        4.28810124     -0.64809689     -3.02837652
C        2.48926532     -2.64498671     -2.37082446
H        2.84403694     -1.62407766     -0.49458247
H        2.90488286      1.67129715     -2.76717387
C        2.53057466      2.63717664     -0.86293651
H        3.34518411      3.37435528     -0.95053297
H        1.60220256      3.12028139     -1.20160824
H        2.41111122      2.36799305      0.19662840
H        3.26729627     -3.40943432     -2.21637744
H        1.53162732     -3.07857170     -2.04704182
H        2.42619862     -2.44460344     -3.45125717
H       -3.34524589     -3.37429472     -0.95042703
H       -1.60225744     -3.12026860     -1.20151176
H       -2.41114878     -2.36792695      0.19670160
H       -3.26723373      3.40946568     -2.21641256
H       -1.53156268      3.07856830     -2.04705818
H       -2.42614138      2.44460656     -3.45127283
