65
StericRender oriented
Cl      -0.02212562      1.67000423     -1.72195124
Mn       0.00000000      0.00000000      0.00000000
O       -1.44426075      0.92366879      0.84082930
C       -2.72767543      0.68196798      0.80768642
C       -3.30248647     -0.26590907     -0.12143532
C       -3.60940739      1.40920758      1.69309790
C       -4.97149898      1.13181664      1.61918156
C       -3.05439883      2.43378554      2.70016914
C       -5.53499086      0.19585284      0.72400710
C       -4.17579089      3.10562699      3.51921053
C       -2.29104340      3.55701737      1.95405018
C       -2.11833273      1.71238270      3.70143307
O        1.31631804      0.95448143      0.90049083
N        1.37270494     -0.94610092     -1.12078745
C        2.62139382      0.81834051      0.94894262
C        2.63957596     -0.98556655     -0.80780964
C        0.82858842     -1.65953136     -2.21053210
C        3.29835559     -0.20117183      0.18836315
C        4.69626410     -0.37886918      0.33135190
C        3.39213490      1.71600491      1.77246384
C       -2.54098224     -0.96892361     -1.09490568
C       -4.70765949     -0.48831164     -0.13599989
C       -0.58458193     -1.64925574     -2.29465480
C        1.58007013     -2.32833053     -3.19127027
N       -1.24476223     -0.93204930     -1.28104935
C       -1.21907903     -2.32010346     -3.35460346
C        5.42072559      0.43654104      1.17794873
C        4.76291641      1.47256914      1.86988711
C        2.72868682      2.88342947      2.52423298
C        0.93792525     -2.99957590     -4.22926184
C       -0.46207255     -2.99459682     -4.30982448
C        1.72282811      2.33173018      3.56438938
C        3.76407136      3.73647781      3.28626770
C        2.00512173      3.81299007      1.51623096
H        3.29454782     -1.65083529     -1.38482317
H       -3.12851961     -1.60116513     -1.77270986
H        5.19068376     -1.16156742     -0.24994517
H       -5.11593467     -1.20968425     -0.84901173
H       -0.96507449     -3.49951600     -5.13652453
H        1.53004619     -3.50730438     -4.99251239
H        6.49677496      0.30017889      1.29694468
H        5.36433993      2.12135573      2.50675534
H       -6.61308771      0.02842227      0.71715469
H       -5.64899270      1.66508579      2.28667978
H        0.92542904      1.75273056      3.08528276
H        1.25996845      3.16813945      4.11167664
H        2.23186094      1.68564355      4.29697474
H        4.28401118      3.16241388      4.06945603
H        3.24102584      4.56739052      3.78284045
H        4.51711964      4.17645792      2.61361836
H        1.53359353      4.64728374      2.05940942
H        1.22727205      3.28416606      0.95243717
H        2.72194931      4.23949138      0.79725950
H       -4.74172103      2.38193538      4.12695821
H       -4.88341751      3.65695805      2.88007493
H       -3.72288456      3.83116527      4.21185078
H       -2.96809060      4.09950984      1.27568138
H       -1.45674211      3.16349817      1.36211976
H       -1.89217382      4.27958229      2.68424729
H       -2.67454749      0.95438780      4.27518950
H       -1.70011760      2.44067862      4.41454107
H       -1.28690667      1.21384929      3.18949671
H        2.67001720     -2.30629390     -3.16619829
H       -2.30423176     -2.29323313     -3.45658302
O       -0.17148708     -1.32659295      0.94251035
