73
StericRender oriented
C        3.41890037     -1.23081656     -1.41161125
C        2.73767715      0.00735895     -1.45498204
C        3.40957094      1.24510421     -1.33214256
C        4.80849025      1.21574246     -1.23809146
C        5.51114324      0.01083138     -1.23736783
C        4.81735455     -1.19690006     -1.31032259
N        1.30013750      0.00768450     -1.58566784
C        0.73488284      0.00534467     -2.77294925
C        1.49048116      0.00602227     -4.07031661
C        2.66821506      2.57852010     -1.28285455
C        2.68956372     -2.57148955     -1.43105244
Pd       0.00000000      0.00000000      0.00000000
Cl      -1.63030725     -0.00236286      1.62764746
N       -1.30013750     -0.00768450     -1.58566417
C       -2.73767985     -0.00740506     -1.45500498
C       -3.40961005     -1.24516179     -1.33239447
C       -4.80853474     -1.21577954     -1.23843156
C       -5.51116276     -0.01085262     -1.23760219
C       -4.81734445      1.19687394     -1.31035343
C       -3.41888163      1.23077043     -1.41152277
C       -2.66831394     -2.57861890     -1.28320048
C       -2.68949828      2.57142144     -1.43078458
Cl       1.63033575      0.00228115      1.62762455
C       -0.73488316     -0.00522933     -2.77294777
C       -1.49048684     -0.00581774     -4.07031242
H       -2.56418385     -0.14416010     -3.90304106
H       -1.34265124      0.94741371     -4.60475987
H       -1.12419790     -0.80387684     -4.73451563
H        1.12413310      0.80406817     -4.73450341
H        2.56417015      0.14443592     -3.90304695
H        1.34271276     -0.94720929     -4.60478216
H       -5.35466933     -2.15767770     -1.15019409
H       -6.60072813     -0.01257355     -1.16114495
H       -5.37013506      2.13861942     -1.27640466
H        5.35459667      2.15764329     -1.14970193
H        6.60070287      0.01256344     -1.16082707
H        5.37016294     -2.13863658     -1.27644135
C       -2.97358540     -3.33912534      0.02230815
C       -2.97369772     -3.44937467     -2.51925731
H       -1.58855799     -2.36106621     -1.28016150
C        2.90121187     -3.32912620     -0.10427223
H        1.61071722     -2.36662392     -1.51426058
C        3.10051242     -3.43830331     -2.63826998
C        2.97320059      3.33883165      0.02283482
C        2.97377127      3.44948332     -2.51872471
H        1.58847001      2.36090281     -1.28004453
C       -2.90137513      3.32902880     -0.10401979
H       -1.61064379      2.36650705     -1.51379045
C       -3.10017959      3.43827669     -2.63805804
H       -2.51026617      4.36787110     -2.66127400
H       -2.94676943      2.91156572     -3.59269593
H       -4.16276556      3.72217707     -2.58391469
H       -2.31957718      4.26419150     -0.10106832
H       -3.96141067      3.59244413      0.03738349
H       -2.58277549      2.71519217      0.75027726
H       -2.39924042     -4.38820273     -2.48013938
H       -4.04194690     -3.71368295     -2.56476693
H       -2.71969684     -2.93326826     -3.45818920
H       -2.37360432     -4.26113463      0.07326328
H       -2.73416812     -2.71804705      0.89677889
H       -4.03479946     -3.62794242      0.08094211
H        2.51061984     -4.36790690     -2.66163303
H        2.94729358     -2.91156427     -3.59292110
H        4.16309144     -3.72218895     -2.58391034
H        2.31946282     -4.26431949     -0.10146470
H        3.96123333     -3.59248989      0.03733851
H        2.58241252     -2.71533081      0.74998073
H        2.39925257      4.38827226     -2.47957264
H        4.04201508      3.71385402     -2.56399408
H        2.71997415      2.93350374     -3.45778280
H        2.37313467      4.26078337      0.07384168
H        2.73367888      2.71758895      0.89716107
H        4.03437753      3.62772855      0.08170786
