71
StericRender oriented
Zr       0.00000000      0.00000000      0.00000000
N        1.43666300      0.30213800     -2.01799200
C        2.31832600      1.51207900     -1.82292500
C        1.62255400      2.85168000     -1.79929600
C        0.53075100      3.07843300     -0.92144100
C       -0.00000000      4.38988000     -0.74019800
C        0.54912600      5.40819900     -1.53787700
C        1.58426500      5.18316600     -2.45117700
C        2.12797500      3.90534100     -2.57029700
O        0.03271000      2.01523500     -0.26284900
C        0.58321700      0.48576500     -3.22543700
C        2.32623900     -0.87713200     -2.18708800
H        1.18699500      0.35294400     -4.14376900
H        0.22737200      1.52608700     -3.22153800
H        2.96857600     -0.75066800     -3.07889500
H        1.73431900     -1.79368400     -2.29108700
H        2.95953900     -0.97975900     -1.29695700
H        2.84990800      1.34188300     -0.87277800
H        3.07313300      1.52077600     -2.63217400
H        2.96348800      3.71885500     -3.25130600
C       -1.07810600      4.69800800      0.32081300
H        0.16196400      6.42221900     -1.43925100
H        1.97204900      6.00824900     -3.05174700
N       -1.43666300     -0.30213800     -2.01799200
C       -2.31832600     -1.51207900     -1.82292500
C       -1.62255400     -2.85168000     -1.79929600
C       -0.53075100     -3.07843300     -0.92144100
C       -0.00000000     -4.38988000     -0.74019800
C       -0.54912600     -5.40819900     -1.53787700
C       -1.58426500     -5.18316600     -2.45117700
C       -2.12797500     -3.90534100     -2.57029700
O       -0.03271000     -2.01523500     -0.26284900
C       -0.58321700     -0.48576500     -3.22543700
C       -2.32623900      0.87713200     -2.18708800
H       -1.18699500     -0.35294400     -4.14376900
H       -0.22737200     -1.52608700     -3.22153800
H       -2.96857600      0.75066800     -3.07889500
H       -1.73431900      1.79368400     -2.29108700
H       -2.95953900      0.97975900     -1.29695700
H       -2.84990800     -1.34188300     -0.87277800
H       -3.07313300     -1.52077600     -2.63217400
H       -2.96348800     -3.71885500     -3.25130600
C        1.07810600     -4.69800800      0.32081300
H       -0.16196400     -6.42221900     -1.43925100
H       -1.97204900     -6.00824900     -3.05174700
C       -1.42912900      6.20007400      0.36246100
C       -2.38451200      3.92330400      0.02619100
C       -0.54605100      4.29864800      1.72103900
H       -2.17888800      6.36898200      1.15025900
H       -0.55464500      6.82551700      0.59984500
H       -1.86258000      6.55221200     -0.58716200
H       -3.15644900      4.20248400      0.76115700
H       -2.76883000      4.16860000     -0.97707200
H       -2.22993900      2.84055700      0.09909200
H       -1.30341000      4.52909200      2.48748300
H       -0.32164100      3.22604900      1.77471100
H        0.36898400      4.86001400      1.96616500
C        1.42912900     -6.20007400      0.36246100
C        2.38451200     -3.92330400      0.02619100
C        0.54605100     -4.29864800      1.72103900
H        2.17888800     -6.36898200      1.15025900
H        0.55464500     -6.82551700      0.59984500
H        1.86258000     -6.55221200     -0.58716200
H        3.15644900     -4.20248400      0.76115700
H        2.76883000     -4.16860000     -0.97707200
H        2.22993900     -2.84055700      0.09909200
H        1.30341000     -4.52909200      2.48748300
H        0.32164100     -3.22604900      1.77471100
H       -0.36898400     -4.86001400      1.96616500
Cl       1.98394000     -0.06561800      1.41311600
Cl      -1.98394000      0.06561800      1.41311600
