 59
 complex 1:      SCF Done: -1558.69707074 A.U. 
C     -1.091837 -2.556893  3.802770
C      0.250360 -2.855319  3.119660
C      0.260643 -2.376848  1.654100
C     -0.070623 -0.873802  1.568170
C     -1.422067 -0.567498  2.249910
C     -1.440842 -1.064542  3.706940
P      0.057827  0.016594 -0.106609
C     -1.227496 -0.665728 -1.337650
C     -2.506179  0.197097 -1.390840
C     -3.430103 -0.238051 -2.542230
C     -3.784774 -1.730383 -2.462930
C     -2.517224 -2.592861 -2.384280
C     -1.608010 -2.157105 -1.219740
C      1.726107 -0.486322 -0.881080
C      1.834738 -1.848231 -1.599060
C      3.207567 -1.999793 -2.283380
C      4.362411 -1.817475 -1.287890
C      4.254597 -0.467602 -0.563738
C      2.885992 -0.300738  0.120393
H      1.836746  0.297550 -1.654460
H      1.702592 -2.672053 -0.877815
H      1.039562 -1.954526 -2.353030
H      2.799468 -1.048133  0.928779
H      2.821634  0.690297  0.594771
H      3.269899 -2.986152 -2.772190
H      3.296638 -1.244980 -3.085880
H      5.057502 -0.364307  0.184473
H      4.397329  0.350794 -1.292200
H      5.331755 -1.899734 -1.806130
H      4.333973 -2.634738 -0.543608
H     -0.701717 -0.523881 -2.302730
H     -3.048484  0.108411 -0.432733
H     -2.237456  1.257840 -1.500380
H     -2.149731 -2.316455 -0.271214
H     -0.715660 -2.797612 -1.185560
H     -4.345009  0.376774 -2.534030
H     -2.926272 -0.033745 -3.504910
H     -2.780263 -3.657675 -2.270240
H     -1.956057 -2.508143 -3.333090
H     -4.398704 -2.026709 -3.329230
H     -4.402069 -1.911506 -1.563950
H      0.705721 -0.332386  2.142760
H     -0.477361 -2.960339  1.082430
H      1.244474 -2.584540  1.207600
H     -2.237131 -1.060463  1.690320
H     -1.621216  0.514801  2.215580
H      0.471962 -3.934698  3.158740
H      1.061819 -2.347730  3.672770
H     -2.429574 -0.868517  4.153200
H     -0.710123 -0.479981  4.294930
H     -1.064442 -2.876580  4.857380
H     -1.887378 -3.150484  3.315800
Ni     0.017907  2.302521  0.161830
C      1.192139  2.704140  1.461670
C     -1.617542  2.875493  0.645598
C      0.504190  2.970872 -1.434110
O      0.817642  3.419664 -2.456150
O     -2.643406  3.309649  0.966065
O      1.922824  3.016891  2.306090
 74
 Complex 2:      SCF Done: -1672.87040197 A.U. 
Ni     0.000006 -0.525764  1.665438
C     -0.001359 -2.315630  1.774351
C     -1.467686  0.069068  2.532504
C      1.468155  0.067379  2.532756
O     -0.002228 -3.467024  1.923334
O     -2.370246  0.379948  3.190306
O      2.370696  0.377425  3.191037
C      3.039447  1.441397 -0.348150
C      2.472138  0.175414 -0.637187
C      3.251112 -1.006963 -0.614848
C      4.605647 -0.896533 -0.265631
C      5.177028  0.338310  0.040199
C      4.398030  1.493454 -0.002360
N      1.093652  0.113900 -1.052064
C      0.000049 -0.021253 -0.253791
N     -1.093572  0.113509 -1.052176
C     -0.768011  0.359270 -2.482465
C      0.768185  0.357860 -2.482669
C     -2.471989  0.175936 -0.637185
C     -3.251635 -1.006016 -0.615000
C     -4.606071 -0.894906 -0.265648
C     -5.176725  0.340203  0.040480
C     -4.397085  1.494912 -0.001915
C     -3.038553  1.442177 -0.347820
H     -5.224372 -1.794412 -0.230318
H     -4.850524  2.459313  0.238929
H      1.199111  1.315912 -2.811461
H      5.223439 -1.796386 -0.230216
H      4.852029  2.457654  0.238242
H      1.194429 -0.440675 -3.108508
H     -1.195952 -0.437284 -3.109623
H     -1.197183  1.318771 -2.809408
H      6.232153  0.399317  0.316611
H     -6.231792  0.401750  0.316996
C     -2.675631 -2.369085 -0.984875
H     -1.578724 -2.276277 -0.969565
C     -2.237390  2.739417 -0.419595
H     -1.191947  2.473807 -0.639803
C      2.238946  2.739030 -0.420104
H      1.193379  2.473889 -0.640293
C      2.674374 -2.369813 -0.984379
H      1.577519 -2.276272 -0.969707
C      3.104138 -2.783334 -2.409711
H      4.196762 -2.912121 -2.465355
H      2.636516 -3.739901 -2.691500
H      2.822801 -2.030676 -3.162056
C      3.060795 -3.468720  0.023568
H      2.816198 -3.175594  1.053414
H      2.518564 -4.399311 -0.202914
H      4.137429 -3.697365 -0.019851
C      2.751430  3.645570 -1.560025
H      2.121841  4.544656 -1.650960
H      3.783503  3.978308 -1.367623
H      2.749227  3.125658 -2.530579
C      2.238665  3.503031  0.918472
H      1.625367  4.413978  0.835949
H      1.830499  2.887560  1.731270
H      3.255453  3.812930  1.205743
C     -2.749477  3.646393 -1.559336
H     -3.781340  3.979683 -1.366758
H     -2.119402  4.545146 -1.650224
H     -2.747709  3.126651 -2.529985
C     -2.236651  3.503313  0.919059
H     -1.828428  2.887713  1.731723
H     -1.623129  4.414097  0.836425
H     -3.253290  3.813481  1.206558
C     -3.063401 -3.468284  0.022209
H     -4.140146 -3.696257 -0.022041
H     -2.521599 -4.399087 -0.204430
H     -2.819292 -3.175904  1.052382
C     -3.104832 -2.781528 -2.410703
H     -2.637770 -3.738302 -2.692717
H     -4.197523 -2.909436 -2.467091
H     -2.822439 -2.028683 -3.162464
 73
 complex 3:      SCF Done: -1953.26000147 A.U. 
C      2.762218  1.783783  0.055975
C      2.455150  0.659983 -0.751311
C      3.465455 -0.227634 -1.201903
C      4.780828  0.003824 -0.773893
C      5.097044  1.078682  0.055232
C      4.095568  1.959003  0.457768
N      1.104093  0.475217 -1.235001
C     -0.000081  0.154443 -0.516645
N     -1.088098  0.283461 -1.317126
C     -0.703608  0.539792 -2.729570
C      0.749563  0.991276 -2.584054
C     -2.473159  0.034341 -0.985634
C     -2.956406 -1.294379 -0.895396
C     -4.319619 -1.474167 -0.611315
C     -5.179706 -0.390082 -0.448032
C     -4.691103  0.908886 -0.578774
C     -3.338436  1.152033 -0.858536
H     -4.712553 -2.489157 -0.523771
H     -5.372824  1.754382 -0.463794
H      0.855955  2.089802 -2.592361
H      5.571649 -0.676795 -1.095606
H      4.352661  2.811331  1.090219
H      1.411844  0.569005 -3.348691
H     -0.801129 -0.395467 -3.306074
H     -1.352160  1.300196 -3.181081
H      6.127579  1.233908  0.382866
H     -6.235745 -0.557806 -0.223975
C     -2.083910 -2.518933 -1.148962
H     -1.030413 -2.205154 -1.134561
C     -2.873471  2.593189 -1.061811
H     -1.772541  2.586808 -1.101228
C      1.736534  2.842311  0.451794
H      0.737654  2.468602  0.182948
C      3.192361 -1.385709 -2.158333
H      2.102072 -1.534505 -2.194559
C      3.703999 -1.054240 -3.579529
H      4.801873 -0.965373 -3.583551
H      3.429496 -1.854177 -4.285189
H      3.303377 -0.104139 -3.965872
C      3.814083 -2.713117 -1.683653
H      3.493014 -2.955955 -0.662739
H      3.498365 -3.532261 -2.348366
H      4.914721 -2.677133 -1.709300
C      1.977144  4.152988 -0.329919
H      1.204628  4.897666 -0.081616
H      2.957075  4.586417 -0.075891
H      1.961370  3.990593 -1.418817
C      1.728396  3.111829  1.968400
H      0.910247  3.800242  2.229464
H      1.586635  2.178290  2.531029
H      2.670072  3.575561  2.301515
C     -3.402160  3.153594 -2.402012
H     -4.500565  3.230907 -2.382174
H     -2.997450  4.160923 -2.587780
H     -3.138419  2.513761 -3.258075
C     -3.285956  3.528343  0.091969
H     -2.937570  3.153902  1.062855
H     -2.859902  4.531453 -0.066039
H     -4.379799  3.643544  0.143593
C     -2.237111 -3.587769 -0.051703
H     -3.244849 -4.033014 -0.050221
H     -1.510914 -4.397526 -0.214673
H     -2.038787 -3.159688  0.940801
C     -2.386389 -3.119209 -2.540204
H     -1.712557 -3.965813 -2.744282
H     -3.422375 -3.490145 -2.594825
H     -2.258538 -2.378748 -3.345573
Ir    -0.009576 -0.555462  1.466534
C      0.115669 -1.332175  3.208606
C     -1.007531  0.865169  2.100598
O      0.218099 -1.811674  4.254660
Cl     1.178580 -2.477188  0.659272
O     -1.647331  1.733083  2.547165
 51
 Complex 4:      SCF Done: -2434.46614933 A.U. 
Pd    -0.000010 -1.356630 -0.000020
P      1.571270  0.257920  0.015810
C      0.705160  1.906550  0.017820
C      2.862660  0.340500  1.398860
C      4.178480 -0.049440  0.690410
C      2.836840  0.216540 -1.389680
P     -1.571270  0.257930 -0.015800
C     -0.705140  1.906560 -0.017830
C     -2.862680  0.340530 -1.398830
C     -2.836810  0.216550  1.389710
C      1.396950  3.130030  0.039100
C      0.699500  4.340810  0.020330
C     -0.699460  4.340810 -0.020390
C     -1.396920  3.130040 -0.039130
C     -4.177490  0.573910  0.714630
C     -4.178500 -0.049390 -0.690360
C      4.177510  0.573880 -0.714570
H     -2.488850  3.141830 -0.069620
H     -1.247950  5.285040 -0.035040
H      1.248000  5.285030  0.034960
H      2.488880  3.141810  0.069570
Cl     1.777670 -2.944550 -0.048580
Cl    -1.777700 -2.944530  0.048530
H     -2.844020 -0.862040  1.624100
C     -2.489210  1.014190  2.645020
H     -5.019380  0.205630  1.323590
H     -4.288070  1.671770  0.648140
H     -5.044920  0.278880 -1.287180
H     -4.222790 -1.147460 -0.607110
H     -2.904900  1.410530 -1.671290
C     -2.530620 -0.493720 -2.637140
H      5.044900  0.278800  1.287250
H      4.222750 -1.147510  0.607160
H      5.019400  0.205590 -1.323510
H      4.288110  1.671730 -0.648070
C      2.489270  1.014220 -2.644970
H      2.844030 -0.862040 -1.624090
H      2.904890  1.410500  1.671320
C      2.530570 -0.493750  2.637170
H      3.345180 -0.406170  3.374350
H      1.602200 -0.155080  3.120280
H      2.411100 -1.553310  2.367970
H      3.267300  0.859780 -3.409420
H      1.531630  0.690450 -3.078560
H      2.426210  2.094650 -2.444570
H     -3.345250 -0.406130 -3.374300
H     -1.602260 -0.155060 -3.120270
H     -2.411160 -1.553280 -2.367950
H     -3.267230  0.859750  3.409480
H     -1.531560  0.690390  3.078580
H     -2.426130  2.094620  2.444640
 54
 complex 5:      SCF Done: -1974.74022544 A.U. 
Pd     0.000094 -1.179295 -0.000299
N      1.397970  0.313891 -0.364641
C      1.161119  1.579313 -0.503463
C     -0.000036  2.410210 -0.000608
C      2.834503  0.081617 -0.746367
O      2.126967  2.305617 -1.119756
H      2.873516 -0.862647 -1.305735
C      3.803461 -0.029439  0.486828
C      3.088700  1.307333 -1.629036
H      2.842117  1.134737 -2.687947
H      4.088502  1.745874 -1.542534
Cl     1.415128 -2.851794 -0.775384
C      0.530569  3.312545  1.153264
H     -0.271104  3.982391  1.488892
H      1.375878  3.914375  0.795987
H      0.861696  2.706757  2.008344
N     -1.397779  0.313859  0.364288
C     -1.160808  1.579266  0.503112
C     -2.834072  0.081551  0.746895
O     -2.126270  2.305501  1.120059
H     -2.872704 -0.862783  1.306179
C     -3.803926 -0.029347 -0.485632
C     -3.087708  1.307183  1.629858
H     -2.840446  1.134516  2.688597
H     -4.087562  1.745742  1.544022
Cl    -1.414900 -2.851962  0.774435
C     -0.531080  3.310951 -1.155560
H      0.270281  3.980821 -1.491910
H     -1.376688  3.912784 -0.798979
H     -0.861867  2.704013 -2.009952
C      5.172846 -0.471588 -0.075409
C      3.964515  1.310367  1.233726
C      3.318357 -1.089286  1.493604
H      5.897535 -0.577648  0.746353
H      5.093145 -1.444830 -0.583775
H      5.592649  0.256571 -0.788734
H      4.659058  1.173664  2.076987
H      4.373296  2.114151  0.601976
H      3.008959  1.654597  1.657246
H      4.046631 -1.166908  2.317056
H      2.342658 -0.820556  1.925604
H      3.205748 -2.075305  1.024376
C     -5.172636 -0.472530  0.077416
C     -3.966312  1.310755 -1.231703
C     -3.319033 -1.088389 -1.493347
H     -5.897892 -0.578609 -0.743841
H     -5.092000 -1.445971  0.585255
H     -5.592306  0.255050  0.791412
H     -4.661578  1.174162 -2.074384
H     -4.374874  2.114026 -0.599164
H     -3.011317  1.655630 -1.655943
H     -4.047973 -1.166110 -2.316205
H     -2.343886 -0.818809 -1.926061
H     -3.205356 -2.074544 -1.024675
 81
 complex 6:      SCF Done: -3427.89721083 A.U. 
Pd    -0.000170 -2.221105 -0.000488
P      1.702360 -0.679052  0.156787
C      3.135726 -1.352455  1.132396
C      4.456730 -0.974053  0.853150
C      5.509428 -1.468397  1.633039
C      5.249877 -2.337920  2.695868
C      3.932584 -2.723405  2.972729
C      2.880450 -2.243277  2.190076
P     -1.702497 -0.678791 -0.156948
C     -1.193293  0.827647 -1.157734
C     -0.261745  1.770436 -0.702481
C      0.182061  2.818237 -1.588592
C     -0.331823  2.886297 -2.929922
C     -1.280199  1.919037 -3.344525
C     -1.694654  0.923963 -2.488091
C      0.110272  3.920284 -3.801755
C      1.026762  4.860722 -3.378363
C      1.540318  4.798346 -2.059714
C      1.130770  3.805800 -1.190634
C      0.262060  1.770316  0.702713
C      1.193403  0.827269  1.157869
C      1.694738  0.923310  2.488246
C      1.280457  1.918354  3.344805
C      0.332269  2.885840  2.930314
C     -0.181589  2.818059  1.588954
C     -0.109698  3.919770  3.802283
C     -1.026038  4.860404  3.379006
C     -1.539588  4.798287  2.060339
C     -1.130163  3.805813  1.191125
C     -2.454451 -0.091431  1.423944
C     -3.169199  1.114659  1.511546
C     -3.787254  1.476711  2.712539
C     -3.698192  0.636582  3.827904
C     -2.992045 -0.568541  3.740501
C     -2.367316 -0.934646  2.544355
C     -3.136305 -1.351489 -1.132402
C     -4.457105 -0.972668 -0.852737
C     -5.510178 -1.466383 -1.632516
C     -5.251201 -2.335721 -2.695636
C     -3.934122 -2.721639 -2.972909
C     -2.881617 -2.242128 -2.190380
C      2.454801 -0.091297 -1.423729
C      3.169854  1.114655 -1.510696
C      3.788257  1.477033 -2.711412
C      3.699210  0.637375 -3.827132
C      2.992723 -0.567594 -3.740373
C      2.367646 -0.934025 -2.544508
H     -3.241811  1.774628  0.644723
H     -4.334418  2.419685  2.776251
H     -4.181444  0.920948  4.765362
H     -2.924736 -1.229871  4.607095
H     -1.833338 -1.884659  2.461816
H     -4.674478 -0.307633 -0.015782
H     -6.536328 -1.174421 -1.398095
H     -6.074331 -2.723611 -3.299876
H     -3.724947 -3.419036 -3.786797
H     -1.861747 -2.579933 -2.384406
H      1.535771  3.775516 -0.179052
H      2.266799  5.542872 -1.726464
H      1.357481  5.651763 -4.054892
H     -0.293247  3.954162 -4.817130
H     -1.684272  1.969672 -4.359039
H     -2.426516  0.195946 -2.835474
H     -1.535159  3.775714  0.179535
H     -2.265955  5.542968  1.727187
H     -1.356657  5.651392  4.055647
H      0.293786  3.953436  4.817679
H      1.684501  1.968757  4.359342
H      2.426426  0.195083  2.835562
H      3.242407  1.774254 -0.643588
H      4.335667  2.419896 -2.774648
H      4.182741  0.921996 -4.764369
H      2.925424 -1.228542 -4.607257
H      1.833390 -1.883922 -2.462480
H      4.674557 -0.308882  0.016421
H      6.535747 -1.176779  1.398924
H      6.072723 -2.726279  3.300192
H      3.722929 -3.420933  3.786380
H      1.860411 -2.580764  2.383774
Cl    -1.638275 -3.883956  0.402502
Cl     1.637853 -3.883912 -0.404058
 57
 complex 7:      SCF Done: -2488.66459823 A.U. 
Pd     0.490792 -1.316685 -0.631897
N      1.808321  0.275305 -0.752850
C      1.590231  1.513081 -1.087556
C      0.316248  2.240633 -1.223020
C      3.286860  0.084634 -0.584991
O      2.700431  2.255205 -1.340630
H      3.540447 -0.857809 -1.092663
C      3.744748 -0.021356  0.908819
C      3.824365  1.308587 -1.340050
H      4.066013  1.088192 -2.390994
H      4.670208  1.814246 -0.860373
Cl     2.099360 -2.772271 -1.602939
Cl    -0.947069 -3.107443 -0.290751
C      5.269676 -0.270307  0.893251
C      3.433011  1.263361  1.700218
C      3.069845 -1.223127  1.597397
H      5.634843 -0.405272  1.923031
H      5.516220 -1.182326  0.327620
H      5.834585  0.568916  0.456754
H      3.784347  1.155869  2.738141
H      3.926978  2.152744  1.277685
H      2.350079  1.456813  1.741959
H      3.469575 -1.334703  2.618251
H      1.979974 -1.088858  1.675544
H      3.247066 -2.156940  1.044081
C      0.368249  3.503545 -1.850971
C     -0.775655  4.286918 -1.994705
C     -1.998396  3.822116 -1.506563
C     -2.065618  2.572511 -0.882819
C     -0.926856  1.766307 -0.728199
H      1.325605  3.859979 -2.229782
H     -0.709370  5.256323 -2.492416
H     -2.904263  4.422000 -1.616043
H     -3.028424  2.206485 -0.522577
P     -1.123414  0.096919  0.076522
C     -1.083167  0.408626  1.898496
C     -2.879530 -0.333539 -0.306991
C     -1.086494 -0.722310  2.737325
C     -1.050018 -0.557844  4.123925
C     -0.992394  0.725782  4.682304
C     -0.976798  1.848908  3.849529
C     -1.024575  1.694386  2.458560
H     -1.114069 -1.723370  2.296585
H     -1.055939 -1.437877  4.770627
H     -0.955707  0.849097  5.766926
H     -0.927298  2.851559  4.280092
H     -1.016120  2.576215  1.814876
C     -3.912509 -0.107700  0.615206
C     -5.236287 -0.402485  0.266488
C     -5.529793 -0.919540 -0.998714
C     -4.497443 -1.150271 -1.916978
C     -3.174298 -0.867182 -1.572962
H     -3.686693  0.288789  1.607091
H     -6.036066 -0.233328  0.990895
H     -6.562296 -1.153068 -1.267832
H     -4.720559 -1.572909 -2.898790
H     -2.365431 -1.083086 -2.273541
 77
 complex 8:      SCF Done: -3312.53964169 A.U. 
Pd     0.000010 -1.676494 -0.445800
Cl     1.596685 -3.414779 -0.532450
Cl    -1.596630 -3.414805 -0.532588
P     -1.958765 -0.358794 -0.131273
C     -2.183348  1.460981 -0.509380
C     -3.361834  1.982964 -1.073088
C     -3.470159  3.347958 -1.351719
C     -2.407447  4.217277 -1.081912
C     -1.224485  3.739083 -0.505716
C     -1.155802  2.365198 -0.226073
O     -0.000036  1.837203  0.329689
C     -0.000061  4.592964 -0.149810
C     -0.000092  4.861335  1.384039
C     -0.000064  5.939970 -0.888950
C     -2.433219 -0.438793  1.669834
C     -3.031654  0.654703  2.319367
C     -3.383553  0.566612  3.670884
C     -3.142940 -0.611383  4.384756
C     -2.548889 -1.702592  3.741133
C     -2.188176 -1.620010  2.393033
C     -3.427732 -1.012645 -1.062400
C     -4.651211 -1.272029 -0.431264
C     -5.636651 -1.858871 -2.569764
C     -5.750966 -1.699283 -1.185875
C     -4.414196 -1.596266 -3.201547
C     -3.312814 -1.178367 -2.452626
H     -4.190281  1.315166 -1.307426
H     -2.506240  5.276626 -1.324101
H     -4.389271  3.734859 -1.796251
H     -0.000093  3.924446  1.957682
H     -0.893962  5.438715  1.665726
H     -0.000042  5.808591 -1.981187
H     -0.881782  6.534749 -0.609712
H     -4.745788 -1.154021  0.649558
H     -6.494546 -2.195917 -3.155720
H     -6.698411 -1.911106 -0.685058
H     -4.314044 -1.731563 -4.280709
H     -2.353897 -1.002044 -2.945576
H     -3.227524  1.578317  1.772369
H     -3.846772  1.424223  4.164247
H     -3.417387 -0.678764  5.439983
H     -2.357877 -2.627048  4.290569
H     -1.733863 -2.476504  1.890289
P      1.958763 -0.358761 -0.131268
C      2.183311  1.461031 -0.509318
C      3.361792  1.983042 -1.073008
C      3.470096  3.348040 -1.351627
C      2.407361  4.217336 -1.081837
C      1.224396  3.739112 -0.505672
C      1.155737  2.365225 -0.226030
C      2.433266 -0.438870  1.669819
C      3.031693  0.654587  2.319424
C      3.383627  0.566393  3.670925
C      3.143059 -0.611666  4.384707
C      2.549019 -1.702837  3.741010
C      2.188272 -1.620153  2.392925
C      3.427726 -1.012526 -1.062462
C      4.651221 -1.271921 -0.431364
C      5.636641 -1.858598 -2.569918
C      5.750973 -1.699101 -1.186020
C      4.414170 -1.595975 -3.201664
C      3.312790 -1.178152 -2.452699
H      4.190255  1.315261 -1.307341
H      2.506134  5.276687 -1.324023
H      4.389207  3.734962 -1.796143
H      0.893756  5.438734  1.665759
H      0.881631  6.534770 -0.609680
H      4.745813 -1.153981  0.649465
H      6.494533 -2.195586 -3.155910
H      6.698431 -1.910937 -0.685233
H      4.314004 -1.731201 -4.280834
H      2.353862 -1.001816 -2.945621
H      3.227529  1.578251  1.772497
H      3.846838  1.423974  4.164348
H      3.417534 -0.679127  5.439922
H      2.358045 -2.627344  4.290375
H      1.733969 -2.476617  1.890121
 73
 complex 9:      SCF Done: -2249.56288838 A.U. 
C      3.418899  1.230842  0.382796
C      2.737675 -0.007329  0.426283
C      3.409571 -1.245087  0.303584
C      4.808492 -1.215735  0.209555
C      5.511145 -0.010824  0.208719
C      4.817355  1.196915  0.281536
N      1.300133 -0.007641  0.556943
C      0.734857 -0.005178  1.744214
C      1.490432 -0.005721  3.041595
C      2.668216 -2.578508  0.254421
C      2.689562  2.571517  0.402085
Pd     0.000024 -0.000121 -1.028749
Cl    -1.630254  0.002073 -2.656426
N     -1.300142  0.007728  0.556891
C     -2.737682  0.007435  0.426206
C     -3.409610  1.245179  0.303455
C     -4.808533  1.215787  0.209470
C     -5.511161  0.010860  0.208753
C     -4.817344 -1.196859  0.281642
C     -3.418883 -1.230745  0.382840
C     -2.668313  2.578631  0.254136
C     -2.689500 -2.571394  0.402254
Cl     1.630389 -0.002571 -2.656344
C     -0.734909  0.005396  1.744185
C     -1.490536  0.006119  3.041536
H     -2.564230  0.144444  2.874231
H     -1.342710 -0.947057  3.576085
H     -1.124259  0.804247  3.705663
H      1.124072 -0.803698  3.705858
H      2.564124 -0.144152  2.874359
H      1.342654  0.947566  3.575959
H     -5.354666  2.157676  0.121125
H     -6.600725  0.012573  0.132276
H     -5.370134 -2.138608  0.247781
H      5.354600 -2.157645  0.121273
H      6.600706 -0.012564  0.132198
H      5.370164  2.138648  0.247567
C     -2.973561  3.339002 -1.051457
C     -2.973719  3.449515  1.490097
H     -1.588557  2.361078  0.251139
C      2.901234  3.329016 -0.924770
H      1.610714  2.366660  0.485295
C      3.100489  3.438456  1.609220
C      2.973225 -3.338955 -1.051184
C      2.973750 -3.449343  1.490387
H      1.588471 -2.360891  0.251569
C     -2.901353 -3.329139 -0.924436
H     -1.610647 -2.366471  0.485258
C     -3.100203 -3.438124  1.609610
H     -2.510290 -4.367716  1.632933
H     -2.946810 -2.911314  2.564196
H     -4.162788 -3.722030  1.555477
H     -2.319555 -4.264302 -0.927280
H     -3.961386 -3.592569 -1.065831
H     -2.582738 -2.715391 -1.778791
H     -2.399261  4.388339  1.450892
H     -4.041969  3.713828  1.535560
H     -2.719735  2.933506  2.429087
H     -2.373579  4.261006 -1.102497
H     -2.734128  2.717833 -1.925859
H     -4.034774  3.627813 -1.110140
H      2.510596  4.368062  1.632476
H      2.947253  2.911816  2.563923
H      4.163069  3.722336  1.554850
H      2.319485  4.264209 -0.927685
H      3.961258  3.592365 -1.066389
H      2.582450  2.715132 -1.778965
H      2.399232 -4.388136  1.451322
H      4.041993 -3.713709  1.535703
H      2.719936 -2.933266  2.429387
H      2.373160 -4.260912 -1.102106
H      2.733719 -2.717803 -1.925579
H      4.034403 -3.627858 -1.110008
 66
 Complex 10:     SCF Done: -2478.66260567 A.U. 
Ti    -0.044220 -1.530260 -1.912420
O     -1.387450 -1.012870 -0.891040
O      1.298790 -0.667790 -1.162590
O     -1.086910  1.816010  1.396410
O      1.008810  1.116930  2.035170
C     -1.863730 -0.090170  0.105830
C     -0.671160  0.898890  0.383750
C      0.629160  0.262190  0.954110
C      1.831690  0.081020 -0.054910
C      0.037880  2.178650  2.216660
C      0.618960  3.518330  1.765060
C     -0.410160  2.187900  3.673370
C     -2.263290 -0.876180  1.362710
C     -1.842110 -2.199760  1.562650
C     -2.206200 -2.893610  2.723180
C     -2.992840 -2.273740  3.697740
C     -3.421730 -0.955760  3.501240
C     -3.064370 -0.262830  2.341540
C     -3.080940  0.615440 -0.519680
C     -4.165950 -0.187820 -0.915490
C     -5.283450  0.375860 -1.531770
C     -5.339820  1.756930 -1.757940
C     -4.269230  2.562280 -1.364050
C     -3.142890  1.996540 -0.751670
C      2.957770 -0.778510  0.548360
C      3.051990 -1.072580  1.916110
C      4.100070 -1.868750  2.397400
C      5.058720 -2.382910  1.521790
C      4.970600 -2.091320  0.154670
C      3.931690 -1.293440 -0.326060
C      2.379730  1.411670 -0.587960
C      3.361300  2.109270  0.135760
C      3.858090  3.328350 -0.333870
C      3.385580  3.867580 -1.535760
C      2.416540  3.174330 -2.267300
C      1.917580  1.953150 -1.798680
H     -0.457450  1.428610 -0.563380
H      0.408700 -0.743170  1.355790
H      0.893410  3.487290  0.702700
H     -0.122690  4.315180  1.921280
H      1.520160  3.756300  2.347530
H     -0.811110  1.203100  3.945570
H      0.442350  2.425400  4.325040
H     -1.189380  2.948420  3.824130
H     -1.247210 -2.704240  0.800080
H     -1.875480 -3.925870  2.857240
H     -3.279930 -2.816970  4.600820
H     -4.046820 -0.465490  4.251130
H     -3.411830  0.758990  2.187690
H     -4.127250 -1.265140 -0.741440
H     -6.114160 -0.264550 -1.836420
H     -6.214870  2.200380 -2.238110
H     -4.303570  3.641110 -1.531980
H     -2.329480  2.648200 -0.433130
H      2.325960 -0.664230  2.619830
H      4.159760 -2.087490  3.466000
H      5.871150 -3.007650  1.899400
H      5.713480 -2.488570 -0.540580
H      3.867440 -1.070070 -1.392710
H      3.740330  1.689060  1.068260
H      4.624450  3.854970  0.239380
H      3.779710  4.816650 -1.905750
H      2.052220  3.575480 -3.215630
H      1.188590  1.406430 -2.398430
Cl     0.226200 -3.737960 -1.752300
Cl    -0.325410 -0.809730 -4.004500
 37
 Complex 11:     SCF Done: -1899.26377535 A.U. 
Ti    -0.000000  0.000000  2.769820
C     -1.553410  0.477430 -2.631340
C     -0.958030  1.285760 -1.621010
C     -1.189740  2.706720 -1.672940
C     -1.953330  3.252500 -2.740930
C     -2.498090  2.439040 -3.714570
C     -2.303630  1.038610 -3.647620
C     -0.671410  3.534300 -0.639320
C     -0.000000  2.986730  0.427780
C      0.214160  1.585940  0.485950
O      0.840540  1.102730  1.615000
C     -0.179860  0.723230 -0.543920
Cl    -1.464960  1.100280  4.007340
H     -0.837230  4.613270 -0.689230
H      0.369860  3.599340  1.251240
H     -1.421590 -0.603920 -2.590220
H     -2.756270  0.392930 -4.403330
H     -3.088480  2.869520 -4.526020
H     -2.112780  4.333660 -2.767640
C      1.553410 -0.477430 -2.631340
C      0.958030 -1.285760 -1.621010
C      1.189740 -2.706720 -1.672940
C      1.953330 -3.252500 -2.740930
C      2.498090 -2.439040 -3.714570
C      2.303630 -1.038610 -3.647620
C      0.671410 -3.534300 -0.639320
C     -0.000000 -2.986730  0.427780
C     -0.214160 -1.585940  0.485950
O     -0.840540 -1.102730  1.615000
C      0.179860 -0.723230 -0.543920
H      0.837230 -4.613270 -0.689230
H     -0.369860 -3.599340  1.251240
H      1.421590  0.603920 -2.590220
H      2.756270 -0.392930 -4.403330
H      3.088480 -2.869520 -4.526020
H      2.112780 -4.333660 -2.767640
Cl     1.464960 -1.100280  4.007340
 23
 complex 12:     SCF Done: -1587.23798819 A.U. 
Ni     1.107595 -0.000377 -0.000205
N     -0.335965 -1.277449 -0.000077
N     -0.335102  1.277663 -0.000085
Cl     2.660419 -1.529416 -0.000189
Cl     2.661414  1.527647 -0.000149
C     -0.213937  2.624019 -0.000280
C     -1.319977  3.470154 -0.000085
C     -2.605697  2.920459  0.000353
C     -2.737749  1.533563  0.000534
C     -1.590201  0.731301  0.000292
H      0.817477  2.984098 -0.000565
H     -1.162953  4.549315 -0.000265
H     -3.489938  3.560113  0.000539
H     -3.725368  1.071998  0.000861
C     -0.215713 -2.623888 -0.000246
C     -1.322328 -3.469271 -0.000018
C     -2.607674 -2.918705  0.000429
C     -2.738786 -1.531720  0.000584
C     -1.590695 -0.730237  0.000306
H      0.815456 -2.984667 -0.000539
H     -1.166035 -4.548539 -0.000179
H     -3.492349 -3.557759  0.000644
H     -3.726091 -1.069486  0.000921
 65
 complex 13:     SCF Done: -1985.45997657 A.U. 
Cl     0.072493  0.815998  2.186138
Mn     0.044777  0.586907 -0.201595
O     -1.423212 -0.619953 -0.015734
C     -2.705130 -0.409799 -0.154271
C     -3.252812  0.924464 -0.263507
C     -3.612116 -1.535698 -0.157438
C     -4.971498 -1.269641 -0.295268
C     -3.086484 -2.978572 -0.039911
C     -5.508848  0.030809 -0.417634
C     -4.231109 -4.012762 -0.037780
C     -2.301856 -3.155322  1.284541
C     -2.179786 -3.293921 -1.255487
O      1.334484 -0.746183 -0.082689
N      1.449342  2.023005 -0.221844
C      2.637611 -0.723604 -0.242235
C      2.706625  1.782399 -0.478404
C      0.936990  3.326933 -0.049054
C      3.336300  0.501188 -0.538684
C      4.729485  0.476684 -0.792860
C      3.384197 -1.949254 -0.106508
C     -2.463455  2.104350 -0.182592
C     -4.656975  1.110652 -0.397098
C     -0.473154  3.415460  0.039769
C      1.716539  4.490399  0.062815
N     -1.162391  2.193590 -0.058237
C     -1.076711  4.671101  0.227383
C      5.429143 -0.712207 -0.733857
C      4.751585 -1.895870 -0.380724
C      2.699271 -3.263493  0.308043
C      1.104702  5.729751  0.236046
C     -0.292378  5.818710  0.318282
C      1.663732 -3.675628 -0.767063
C      3.712169 -4.419254  0.444658
C      2.005180 -3.082597  1.682529
H      3.378021  2.638361 -0.623565
H     -3.031131  3.043022 -0.214006
H      5.240520  1.415547 -1.021668
H     -5.044445  2.129938 -0.476948
H     -0.771245  6.786356  0.478703
H      1.718663  6.626779  0.332687
H      6.501298 -0.738140 -0.934974
H      5.334326 -2.814407 -0.310452
H     -6.586295  0.168292 -0.520489
H     -5.668025 -2.108446 -0.308829
H      0.880532 -2.918097 -0.882707
H      1.185228 -4.624104 -0.475910
H      2.151351 -3.825838 -1.743223
H      4.209226 -4.654902 -0.509635
H      3.174972 -5.324234  0.765606
H      4.484368 -4.208918  1.201354
H      1.518130 -4.026383  1.974895
H      1.243972 -2.293544  1.659591
H      2.742514 -2.827464  2.459646
H     -4.814390 -3.993952 -0.972014
H     -4.919943 -3.867908  0.809404
H     -3.798437 -5.020223  0.057602
H     -2.958988 -2.975547  2.149835
H     -1.450774 -2.468067  1.352641
H     -1.924285 -4.188256  1.354343
H     -2.752372 -3.227218 -2.194009
H     -1.782383 -4.317986 -1.170613
H     -1.333893 -2.599444 -1.319130
H      2.805304  4.433009  0.042915
H     -2.158458  4.755238  0.334260
O     -0.153914  0.732896 -1.819245
 71
 Complex 14:     SCF Done: -1989.08302252 A.U. 
Mn     0.258170 -0.414940 -0.250450
Cl     0.763830 -0.210830  2.131820
O     -1.586700 -0.168300  0.195350
O     -0.086550 -0.760490 -1.810360
O      0.659750  1.414210 -0.396840
N      2.192500 -0.873530 -0.446390
N      0.118310 -2.347340  0.167740
C     -2.558550 -1.019000 -0.018350
C     -2.304100 -2.436780 -0.118450
C     -3.925030 -0.551920 -0.074090
C     -4.921470 -1.501340 -0.290840
C     -4.260070  0.940300  0.102000
C     -4.669880 -2.883740 -0.417340
C     -5.776640  1.206650  0.002180
C     -3.791750  1.412670  1.502190
C     -3.567620  1.771970 -1.005560
C      1.781400  2.073560 -0.217790
C      3.167700 -0.024650 -0.372730
C      2.398960 -2.326560 -0.585610
C      3.051270  1.398040 -0.213730
C      4.247890  2.133060 -0.064100
C      1.745570  3.507540 -0.073920
C     -1.000260 -2.997590  0.087460
C     -3.374050 -3.344410 -0.309990
C      1.421170 -2.980750  0.420750
C      3.829000 -2.841680 -0.389170
C      1.460320 -4.509250  0.336890
C      4.210050  3.507460  0.085220
C      2.966980  4.167060  0.075730
C      0.414290  4.279880 -0.096130
C      3.863190 -4.377740 -0.473540
C      2.899400 -5.017050  0.534870
C      0.626760  5.797650  0.081650
C     -0.286200  4.065900 -1.462410
C     -0.494450  3.795530  1.061090
H      4.196250 -0.406000 -0.422640
H     -0.969770 -4.088750  0.205100
H      2.048180 -2.586970 -1.601800
H      1.722260 -2.645570  1.430360
H      5.201000  1.597060 -0.061050
H     -3.154230 -4.413890 -0.372330
H      4.203430 -2.517900  0.598130
H      4.498490 -2.412850 -1.152100
H      1.084310 -4.838380 -0.648770
H      0.802480 -4.949200  1.103270
H      2.919070 -6.114260  0.441610
H      3.231220 -4.781690  1.561330
H      4.891440 -4.731540 -0.298780
H      3.591310 -4.695770 -1.495720
H      5.130400  4.080280  0.210170
H      2.965020  5.250840  0.192160
H     -5.497760 -3.575270 -0.582180
H     -5.956980 -1.166640 -0.358620
H      1.234750  6.231870 -0.727820
H      1.099080  6.041160  1.046320
H     -0.353530  6.297350  0.060440
H      0.341220  4.445810 -2.284440
H     -0.495970  3.005670 -1.647480
H     -1.239880  4.616880 -1.480260
H     -1.450010  4.343360  1.033660
H     -0.018450  3.988850  2.034800
H     -0.706370  2.722390  0.993800
H     -6.184370  0.929610 -0.983080
H     -6.345340  0.673130  0.780170
H     -5.958100  2.283150  0.141740
H     -2.713680  1.266120  1.640140
H     -4.017210  2.483930  1.627130
H     -4.320610  0.859750  2.294500
H     -2.477490  1.667640 -0.964880
H     -3.819880  2.837400 -0.882160
H     -3.910710  1.453990 -2.002690
 71
 complex 15:     SCF Done: -2241.93055090 A.U. 
Zr     0.000000  0.000000  0.665518
N      1.436663  0.302138 -1.352474
C      2.318326  1.512079 -1.157407
C      1.622554  2.851680 -1.133778
C      0.530751  3.078433 -0.255923
C      0.000000  4.389880 -0.074680
C      0.549126  5.408199 -0.872359
C      1.584265  5.183166 -1.785659
C      2.127975  3.905341 -1.904779
O      0.032710  2.015235  0.402669
C      0.583217  0.485765 -2.559919
C      2.326239 -0.877132 -1.521570
H      1.186995  0.352944 -3.478251
H      0.227372  1.526087 -2.556020
H      2.968576 -0.750668 -2.413377
H      1.734319 -1.793684 -1.625569
H      2.959539 -0.979759 -0.631439
H      2.849908  1.341883 -0.207260
H      3.073133  1.520776 -1.966656
H      2.963488  3.718855 -2.585788
C     -1.078106  4.698008  0.986331
H      0.161964  6.422219 -0.773733
H      1.972049  6.008249 -2.386229
N     -1.436663 -0.302138 -1.352474
C     -2.318326 -1.512079 -1.157407
C     -1.622554 -2.851680 -1.133778
C     -0.530751 -3.078433 -0.255923
C      0.000000 -4.389880 -0.074680
C     -0.549126 -5.408199 -0.872359
C     -1.584265 -5.183166 -1.785659
C     -2.127975 -3.905341 -1.904779
O     -0.032710 -2.015235  0.402669
C     -0.583217 -0.485765 -2.559919
C     -2.326239  0.877132 -1.521570
H     -1.186995 -0.352944 -3.478251
H     -0.227372 -1.526087 -2.556020
H     -2.968576  0.750668 -2.413377
H     -1.734319  1.793684 -1.625569
H     -2.959539  0.979759 -0.631439
H     -2.849908 -1.341883 -0.207260
H     -3.073133 -1.520776 -1.966656
H     -2.963488 -3.718855 -2.585788
C      1.078106 -4.698008  0.986331
H     -0.161964 -6.422219 -0.773733
H     -1.972049 -6.008249 -2.386229
C     -1.429129  6.200074  1.027979
C     -2.384512  3.923304  0.691709
C     -0.546051  4.298648  2.386557
H     -2.178888  6.368982  1.815777
H     -0.554645  6.825517  1.265363
H     -1.862580  6.552212  0.078356
H     -3.156449  4.202484  1.426675
H     -2.768830  4.168600 -0.311554
H     -2.229939  2.840557  0.764610
H     -1.303410  4.529092  3.153001
H     -0.321641  3.226049  2.440229
H      0.368984  4.860014  2.631683
C      1.429129 -6.200074  1.027979
C      2.384512 -3.923304  0.691709
C      0.546051 -4.298648  2.386557
H      2.178888 -6.368982  1.815777
H      0.554645 -6.825517  1.265363
H      1.862580 -6.552212  0.078356
H      3.156449 -4.202484  1.426675
H      2.768830 -4.168600 -0.311554
H      2.229939 -2.840557  0.764610
H      1.303410 -4.529092  3.153001
H      0.321641 -3.226049  2.440229
H     -0.368984 -4.860014  2.631683
Cl     1.983940 -0.065618  2.078634
Cl    -1.983940  0.065618  2.078634
 39
 complex 16:     SCF Done: -1739.83317345 A.U. 
Zr    -0.000202 -0.354692 -0.000178
C     -1.227633  1.751082  0.705127
C     -2.321196  0.922095  0.272100
C     -2.420682 -0.206836  1.186911
C     -1.382733 -0.065865  2.160307
C     -0.686935  1.140122  1.882298
C      1.228035  1.751046 -0.705564
C      2.321361  0.921849 -0.272348
C      2.420524 -0.207282 -1.186962
C      1.382570 -0.066248 -2.160371
C      0.687107  1.139986 -1.882539
C     -0.766825  3.044279  0.083782
C      0.767457  3.044160 -0.083908
C     -3.263706  1.053277 -0.787562
C     -3.454539 -1.166926  1.017195
H     -1.173645 -0.747020  2.980096
H      0.145624  1.527909  2.468533
C      3.264218  1.053205  0.786965
C      3.453988 -1.167745 -1.016984
H      1.173353 -0.747429 -2.980107
H     -0.145123  1.528134 -2.469010
Cl    -1.164660 -1.915777 -1.454824
Cl     1.164722 -1.914131  1.456018
C     -4.257160  0.104607 -0.914330
C     -4.351274 -1.001616 -0.017174
H     -4.994122  0.198170 -1.714800
H     -5.155295 -1.726916 -0.157448
H     -3.216373  1.904660 -1.470711
H     -3.531728 -2.016256  1.698875
C      4.257392  0.104269  0.913893
C      4.350936 -1.002371  0.017188
H      4.994611  0.197969  1.714110
H      5.154676 -1.727943  0.157667
H      3.217332  1.904858  1.469811
H      3.530786 -2.017332 -1.698389
H     -1.089532  3.909728  0.688246
H     -1.245604  3.164037 -0.901318
H      1.246285  3.163262  0.901215
H      1.090351  3.909733 -0.688073
 45
 complex 17:     SCF Done: -1818.49010885 A.U. 
Zr     0.002493 -0.035474 -0.263561
C     -1.309608 -0.592297  1.808196
C     -2.315841  0.020855  0.983297
C     -2.568510 -0.861778 -0.146688
C     -1.722798 -2.015917 -0.013211
C     -0.981635 -1.842485  1.189254
C      1.288021  0.514469  1.816477
C      2.337503  0.011244  0.972182
C      2.519466  0.951453 -0.124152
C      1.603915  2.044082  0.062390
C      0.877819  1.768800  1.253135
C     -0.764963 -0.076057  3.115678
C      0.777503 -0.090168  3.099111
C     -3.066998  1.224335  1.116751
C     -3.569833 -0.523943 -1.097049
C     -1.749503 -3.239241 -0.877227
H     -0.267122 -2.568676  1.578885
C      3.178462 -1.134216  1.062069
C      3.529893  0.717789 -1.095854
C      1.553425  3.303670 -0.745390
H      0.122227  2.431594  1.676059
Cl    -0.917618  1.493426 -1.915247
Cl     1.015003 -1.658808 -1.763247
C     -4.031996  1.514859  0.174576
C     -4.281946  0.645267 -0.928572
H     -4.624373  2.427143  0.272016
H     -5.056682  0.916116 -1.648763
H     -2.903616  1.888980  1.968195
H     -3.768664 -1.183138 -1.944293
C      4.152998 -1.321474  0.103605
C      4.325433 -0.402642 -0.974089
H      4.811669 -2.190321  0.166540
H      5.108532 -0.593964 -1.710564
H      3.067749 -1.839889  1.888601
H      3.673116  1.418401 -1.920988
H     -1.150106 -0.667862  3.964223
H     -1.123138  0.953458  3.274742
H      1.139161 -1.127766  3.180001
H      1.180610  0.444037  3.977589
H     -2.626550 -3.861646 -0.629139
H     -1.806193 -2.984711 -1.945265
H     -0.846013 -3.846063 -0.732410
H      2.412646  3.949511 -0.495129
H      1.584720  3.098910 -1.824940
H      0.631940  3.866688 -0.545479
 42
 complex 18:     SCF Done: -1779.14220767 A.U. 
Zr     0.202711  0.908509  0.000000
C      1.896828 -1.762825  0.000000
C      2.367438 -0.300518  0.000000
C      0.358394 -1.547197  0.000000
C      2.387321  0.558794  1.146695
C      2.457081  1.915889  0.705491
C      2.457081  1.915889 -0.705491
C      2.387321  0.558794 -1.146695
H      2.334127  0.248093  2.187218
H      2.476545  2.790446  1.349900
H      2.476545  2.790446 -1.349900
H      2.334127  0.248093 -2.187218
C     -0.488849 -1.317402 -1.168315
C     -1.794834 -0.864630 -0.720705
C     -1.794834 -0.864630  0.720705
C     -0.488849 -1.317402  1.168315
C     -0.286430 -1.432947 -2.576778
C     -2.824124 -0.561652 -1.636895
C     -2.824124 -0.561652  1.636895
C     -0.286430 -1.432947  2.576778
H      0.654297 -1.794344 -2.983615
H     -3.798158 -0.228393 -1.272815
H     -3.798158 -0.228393  1.272815
H      0.654297 -1.794344  2.983615
C     -1.317803 -1.131961 -3.450641
C     -2.582711 -0.690066 -2.993104
C     -2.582711 -0.690066  2.993104
C     -1.317803 -1.131961  3.450641
H     -1.148570 -1.239649 -4.524320
H     -3.367711 -0.457945 -3.714889
H     -1.148570 -1.239649  4.524320
H     -3.367711 -0.457945  3.714889
C      2.418976 -2.530651  1.232371
H      1.893042 -3.490779  1.341004
H      3.491441 -2.737831  1.100859
H      2.316446 -1.973596  2.168988
C      2.418976 -2.530651 -1.232371
H      3.491441 -2.737831 -1.100859
H      1.893042 -3.490779 -1.341004
H      2.316446 -1.973596 -2.168988
Cl    -0.622673  2.227835 -1.863766
Cl    -0.622673  2.227835  1.863766
